c
c Reduzido de 60-coloração para SAT
c Arquivo original: ../Instancias/Coloring/gc_instances/original_graphs/jean.colc
p cnf 4800 30560
1 2 3 4 5 6 7 8 9 10 11 12 13 14 15 16 17 18 19 20 21 22 23 24 25 26 27 28 29 30 31 32 33 34 35 36 37 38 39 40 41 42 43 44 45 46 47 48 49 50 51 52 53 54 55 56 57 58 59 60  0
61 62 63 64 65 66 67 68 69 70 71 72 73 74 75 76 77 78 79 80 81 82 83 84 85 86 87 88 89 90 91 92 93 94 95 96 97 98 99 100 101 102 103 104 105 106 107 108 109 110 111 112 113 114 115 116 117 118 119 120  0
121 122 123 124 125 126 127 128 129 130 131 132 133 134 135 136 137 138 139 140 141 142 143 144 145 146 147 148 149 150 151 152 153 154 155 156 157 158 159 160 161 162 163 164 165 166 167 168 169 170 171 172 173 174 175 176 177 178 179 180  0
181 182 183 184 185 186 187 188 189 190 191 192 193 194 195 196 197 198 199 200 201 202 203 204 205 206 207 208 209 210 211 212 213 214 215 216 217 218 219 220 221 222 223 224 225 226 227 228 229 230 231 232 233 234 235 236 237 238 239 240  0
241 242 243 244 245 246 247 248 249 250 251 252 253 254 255 256 257 258 259 260 261 262 263 264 265 266 267 268 269 270 271 272 273 274 275 276 277 278 279 280 281 282 283 284 285 286 287 288 289 290 291 292 293 294 295 296 297 298 299 300  0
301 302 303 304 305 306 307 308 309 310 311 312 313 314 315 316 317 318 319 320 321 322 323 324 325 326 327 328 329 330 331 332 333 334 335 336 337 338 339 340 341 342 343 344 345 346 347 348 349 350 351 352 353 354 355 356 357 358 359 360  0
361 362 363 364 365 366 367 368 369 370 371 372 373 374 375 376 377 378 379 380 381 382 383 384 385 386 387 388 389 390 391 392 393 394 395 396 397 398 399 400 401 402 403 404 405 406 407 408 409 410 411 412 413 414 415 416 417 418 419 420  0
421 422 423 424 425 426 427 428 429 430 431 432 433 434 435 436 437 438 439 440 441 442 443 444 445 446 447 448 449 450 451 452 453 454 455 456 457 458 459 460 461 462 463 464 465 466 467 468 469 470 471 472 473 474 475 476 477 478 479 480  0
481 482 483 484 485 486 487 488 489 490 491 492 493 494 495 496 497 498 499 500 501 502 503 504 505 506 507 508 509 510 511 512 513 514 515 516 517 518 519 520 521 522 523 524 525 526 527 528 529 530 531 532 533 534 535 536 537 538 539 540  0
541 542 543 544 545 546 547 548 549 550 551 552 553 554 555 556 557 558 559 560 561 562 563 564 565 566 567 568 569 570 571 572 573 574 575 576 577 578 579 580 581 582 583 584 585 586 587 588 589 590 591 592 593 594 595 596 597 598 599 600  0
601 602 603 604 605 606 607 608 609 610 611 612 613 614 615 616 617 618 619 620 621 622 623 624 625 626 627 628 629 630 631 632 633 634 635 636 637 638 639 640 641 642 643 644 645 646 647 648 649 650 651 652 653 654 655 656 657 658 659 660  0
661 662 663 664 665 666 667 668 669 670 671 672 673 674 675 676 677 678 679 680 681 682 683 684 685 686 687 688 689 690 691 692 693 694 695 696 697 698 699 700 701 702 703 704 705 706 707 708 709 710 711 712 713 714 715 716 717 718 719 720  0
721 722 723 724 725 726 727 728 729 730 731 732 733 734 735 736 737 738 739 740 741 742 743 744 745 746 747 748 749 750 751 752 753 754 755 756 757 758 759 760 761 762 763 764 765 766 767 768 769 770 771 772 773 774 775 776 777 778 779 780  0
781 782 783 784 785 786 787 788 789 790 791 792 793 794 795 796 797 798 799 800 801 802 803 804 805 806 807 808 809 810 811 812 813 814 815 816 817 818 819 820 821 822 823 824 825 826 827 828 829 830 831 832 833 834 835 836 837 838 839 840  0
841 842 843 844 845 846 847 848 849 850 851 852 853 854 855 856 857 858 859 860 861 862 863 864 865 866 867 868 869 870 871 872 873 874 875 876 877 878 879 880 881 882 883 884 885 886 887 888 889 890 891 892 893 894 895 896 897 898 899 900  0
901 902 903 904 905 906 907 908 909 910 911 912 913 914 915 916 917 918 919 920 921 922 923 924 925 926 927 928 929 930 931 932 933 934 935 936 937 938 939 940 941 942 943 944 945 946 947 948 949 950 951 952 953 954 955 956 957 958 959 960  0
961 962 963 964 965 966 967 968 969 970 971 972 973 974 975 976 977 978 979 980 981 982 983 984 985 986 987 988 989 990 991 992 993 994 995 996 997 998 999 1000 1001 1002 1003 1004 1005 1006 1007 1008 1009 1010 1011 1012 1013 1014 1015 1016 1017 1018 1019 1020  0
1021 1022 1023 1024 1025 1026 1027 1028 1029 1030 1031 1032 1033 1034 1035 1036 1037 1038 1039 1040 1041 1042 1043 1044 1045 1046 1047 1048 1049 1050 1051 1052 1053 1054 1055 1056 1057 1058 1059 1060 1061 1062 1063 1064 1065 1066 1067 1068 1069 1070 1071 1072 1073 1074 1075 1076 1077 1078 1079 1080  0
1081 1082 1083 1084 1085 1086 1087 1088 1089 1090 1091 1092 1093 1094 1095 1096 1097 1098 1099 1100 1101 1102 1103 1104 1105 1106 1107 1108 1109 1110 1111 1112 1113 1114 1115 1116 1117 1118 1119 1120 1121 1122 1123 1124 1125 1126 1127 1128 1129 1130 1131 1132 1133 1134 1135 1136 1137 1138 1139 1140  0
1141 1142 1143 1144 1145 1146 1147 1148 1149 1150 1151 1152 1153 1154 1155 1156 1157 1158 1159 1160 1161 1162 1163 1164 1165 1166 1167 1168 1169 1170 1171 1172 1173 1174 1175 1176 1177 1178 1179 1180 1181 1182 1183 1184 1185 1186 1187 1188 1189 1190 1191 1192 1193 1194 1195 1196 1197 1198 1199 1200  0
1201 1202 1203 1204 1205 1206 1207 1208 1209 1210 1211 1212 1213 1214 1215 1216 1217 1218 1219 1220 1221 1222 1223 1224 1225 1226 1227 1228 1229 1230 1231 1232 1233 1234 1235 1236 1237 1238 1239 1240 1241 1242 1243 1244 1245 1246 1247 1248 1249 1250 1251 1252 1253 1254 1255 1256 1257 1258 1259 1260  0
1261 1262 1263 1264 1265 1266 1267 1268 1269 1270 1271 1272 1273 1274 1275 1276 1277 1278 1279 1280 1281 1282 1283 1284 1285 1286 1287 1288 1289 1290 1291 1292 1293 1294 1295 1296 1297 1298 1299 1300 1301 1302 1303 1304 1305 1306 1307 1308 1309 1310 1311 1312 1313 1314 1315 1316 1317 1318 1319 1320  0
1321 1322 1323 1324 1325 1326 1327 1328 1329 1330 1331 1332 1333 1334 1335 1336 1337 1338 1339 1340 1341 1342 1343 1344 1345 1346 1347 1348 1349 1350 1351 1352 1353 1354 1355 1356 1357 1358 1359 1360 1361 1362 1363 1364 1365 1366 1367 1368 1369 1370 1371 1372 1373 1374 1375 1376 1377 1378 1379 1380  0
1381 1382 1383 1384 1385 1386 1387 1388 1389 1390 1391 1392 1393 1394 1395 1396 1397 1398 1399 1400 1401 1402 1403 1404 1405 1406 1407 1408 1409 1410 1411 1412 1413 1414 1415 1416 1417 1418 1419 1420 1421 1422 1423 1424 1425 1426 1427 1428 1429 1430 1431 1432 1433 1434 1435 1436 1437 1438 1439 1440  0
1441 1442 1443 1444 1445 1446 1447 1448 1449 1450 1451 1452 1453 1454 1455 1456 1457 1458 1459 1460 1461 1462 1463 1464 1465 1466 1467 1468 1469 1470 1471 1472 1473 1474 1475 1476 1477 1478 1479 1480 1481 1482 1483 1484 1485 1486 1487 1488 1489 1490 1491 1492 1493 1494 1495 1496 1497 1498 1499 1500  0
1501 1502 1503 1504 1505 1506 1507 1508 1509 1510 1511 1512 1513 1514 1515 1516 1517 1518 1519 1520 1521 1522 1523 1524 1525 1526 1527 1528 1529 1530 1531 1532 1533 1534 1535 1536 1537 1538 1539 1540 1541 1542 1543 1544 1545 1546 1547 1548 1549 1550 1551 1552 1553 1554 1555 1556 1557 1558 1559 1560  0
1561 1562 1563 1564 1565 1566 1567 1568 1569 1570 1571 1572 1573 1574 1575 1576 1577 1578 1579 1580 1581 1582 1583 1584 1585 1586 1587 1588 1589 1590 1591 1592 1593 1594 1595 1596 1597 1598 1599 1600 1601 1602 1603 1604 1605 1606 1607 1608 1609 1610 1611 1612 1613 1614 1615 1616 1617 1618 1619 1620  0
1621 1622 1623 1624 1625 1626 1627 1628 1629 1630 1631 1632 1633 1634 1635 1636 1637 1638 1639 1640 1641 1642 1643 1644 1645 1646 1647 1648 1649 1650 1651 1652 1653 1654 1655 1656 1657 1658 1659 1660 1661 1662 1663 1664 1665 1666 1667 1668 1669 1670 1671 1672 1673 1674 1675 1676 1677 1678 1679 1680  0
1681 1682 1683 1684 1685 1686 1687 1688 1689 1690 1691 1692 1693 1694 1695 1696 1697 1698 1699 1700 1701 1702 1703 1704 1705 1706 1707 1708 1709 1710 1711 1712 1713 1714 1715 1716 1717 1718 1719 1720 1721 1722 1723 1724 1725 1726 1727 1728 1729 1730 1731 1732 1733 1734 1735 1736 1737 1738 1739 1740  0
1741 1742 1743 1744 1745 1746 1747 1748 1749 1750 1751 1752 1753 1754 1755 1756 1757 1758 1759 1760 1761 1762 1763 1764 1765 1766 1767 1768 1769 1770 1771 1772 1773 1774 1775 1776 1777 1778 1779 1780 1781 1782 1783 1784 1785 1786 1787 1788 1789 1790 1791 1792 1793 1794 1795 1796 1797 1798 1799 1800  0
1801 1802 1803 1804 1805 1806 1807 1808 1809 1810 1811 1812 1813 1814 1815 1816 1817 1818 1819 1820 1821 1822 1823 1824 1825 1826 1827 1828 1829 1830 1831 1832 1833 1834 1835 1836 1837 1838 1839 1840 1841 1842 1843 1844 1845 1846 1847 1848 1849 1850 1851 1852 1853 1854 1855 1856 1857 1858 1859 1860  0
1861 1862 1863 1864 1865 1866 1867 1868 1869 1870 1871 1872 1873 1874 1875 1876 1877 1878 1879 1880 1881 1882 1883 1884 1885 1886 1887 1888 1889 1890 1891 1892 1893 1894 1895 1896 1897 1898 1899 1900 1901 1902 1903 1904 1905 1906 1907 1908 1909 1910 1911 1912 1913 1914 1915 1916 1917 1918 1919 1920  0
1921 1922 1923 1924 1925 1926 1927 1928 1929 1930 1931 1932 1933 1934 1935 1936 1937 1938 1939 1940 1941 1942 1943 1944 1945 1946 1947 1948 1949 1950 1951 1952 1953 1954 1955 1956 1957 1958 1959 1960 1961 1962 1963 1964 1965 1966 1967 1968 1969 1970 1971 1972 1973 1974 1975 1976 1977 1978 1979 1980  0
1981 1982 1983 1984 1985 1986 1987 1988 1989 1990 1991 1992 1993 1994 1995 1996 1997 1998 1999 2000 2001 2002 2003 2004 2005 2006 2007 2008 2009 2010 2011 2012 2013 2014 2015 2016 2017 2018 2019 2020 2021 2022 2023 2024 2025 2026 2027 2028 2029 2030 2031 2032 2033 2034 2035 2036 2037 2038 2039 2040  0
2041 2042 2043 2044 2045 2046 2047 2048 2049 2050 2051 2052 2053 2054 2055 2056 2057 2058 2059 2060 2061 2062 2063 2064 2065 2066 2067 2068 2069 2070 2071 2072 2073 2074 2075 2076 2077 2078 2079 2080 2081 2082 2083 2084 2085 2086 2087 2088 2089 2090 2091 2092 2093 2094 2095 2096 2097 2098 2099 2100  0
2101 2102 2103 2104 2105 2106 2107 2108 2109 2110 2111 2112 2113 2114 2115 2116 2117 2118 2119 2120 2121 2122 2123 2124 2125 2126 2127 2128 2129 2130 2131 2132 2133 2134 2135 2136 2137 2138 2139 2140 2141 2142 2143 2144 2145 2146 2147 2148 2149 2150 2151 2152 2153 2154 2155 2156 2157 2158 2159 2160  0
2161 2162 2163 2164 2165 2166 2167 2168 2169 2170 2171 2172 2173 2174 2175 2176 2177 2178 2179 2180 2181 2182 2183 2184 2185 2186 2187 2188 2189 2190 2191 2192 2193 2194 2195 2196 2197 2198 2199 2200 2201 2202 2203 2204 2205 2206 2207 2208 2209 2210 2211 2212 2213 2214 2215 2216 2217 2218 2219 2220  0
2221 2222 2223 2224 2225 2226 2227 2228 2229 2230 2231 2232 2233 2234 2235 2236 2237 2238 2239 2240 2241 2242 2243 2244 2245 2246 2247 2248 2249 2250 2251 2252 2253 2254 2255 2256 2257 2258 2259 2260 2261 2262 2263 2264 2265 2266 2267 2268 2269 2270 2271 2272 2273 2274 2275 2276 2277 2278 2279 2280  0
2281 2282 2283 2284 2285 2286 2287 2288 2289 2290 2291 2292 2293 2294 2295 2296 2297 2298 2299 2300 2301 2302 2303 2304 2305 2306 2307 2308 2309 2310 2311 2312 2313 2314 2315 2316 2317 2318 2319 2320 2321 2322 2323 2324 2325 2326 2327 2328 2329 2330 2331 2332 2333 2334 2335 2336 2337 2338 2339 2340  0
2341 2342 2343 2344 2345 2346 2347 2348 2349 2350 2351 2352 2353 2354 2355 2356 2357 2358 2359 2360 2361 2362 2363 2364 2365 2366 2367 2368 2369 2370 2371 2372 2373 2374 2375 2376 2377 2378 2379 2380 2381 2382 2383 2384 2385 2386 2387 2388 2389 2390 2391 2392 2393 2394 2395 2396 2397 2398 2399 2400  0
2401 2402 2403 2404 2405 2406 2407 2408 2409 2410 2411 2412 2413 2414 2415 2416 2417 2418 2419 2420 2421 2422 2423 2424 2425 2426 2427 2428 2429 2430 2431 2432 2433 2434 2435 2436 2437 2438 2439 2440 2441 2442 2443 2444 2445 2446 2447 2448 2449 2450 2451 2452 2453 2454 2455 2456 2457 2458 2459 2460  0
2461 2462 2463 2464 2465 2466 2467 2468 2469 2470 2471 2472 2473 2474 2475 2476 2477 2478 2479 2480 2481 2482 2483 2484 2485 2486 2487 2488 2489 2490 2491 2492 2493 2494 2495 2496 2497 2498 2499 2500 2501 2502 2503 2504 2505 2506 2507 2508 2509 2510 2511 2512 2513 2514 2515 2516 2517 2518 2519 2520  0
2521 2522 2523 2524 2525 2526 2527 2528 2529 2530 2531 2532 2533 2534 2535 2536 2537 2538 2539 2540 2541 2542 2543 2544 2545 2546 2547 2548 2549 2550 2551 2552 2553 2554 2555 2556 2557 2558 2559 2560 2561 2562 2563 2564 2565 2566 2567 2568 2569 2570 2571 2572 2573 2574 2575 2576 2577 2578 2579 2580  0
2581 2582 2583 2584 2585 2586 2587 2588 2589 2590 2591 2592 2593 2594 2595 2596 2597 2598 2599 2600 2601 2602 2603 2604 2605 2606 2607 2608 2609 2610 2611 2612 2613 2614 2615 2616 2617 2618 2619 2620 2621 2622 2623 2624 2625 2626 2627 2628 2629 2630 2631 2632 2633 2634 2635 2636 2637 2638 2639 2640  0
2641 2642 2643 2644 2645 2646 2647 2648 2649 2650 2651 2652 2653 2654 2655 2656 2657 2658 2659 2660 2661 2662 2663 2664 2665 2666 2667 2668 2669 2670 2671 2672 2673 2674 2675 2676 2677 2678 2679 2680 2681 2682 2683 2684 2685 2686 2687 2688 2689 2690 2691 2692 2693 2694 2695 2696 2697 2698 2699 2700  0
2701 2702 2703 2704 2705 2706 2707 2708 2709 2710 2711 2712 2713 2714 2715 2716 2717 2718 2719 2720 2721 2722 2723 2724 2725 2726 2727 2728 2729 2730 2731 2732 2733 2734 2735 2736 2737 2738 2739 2740 2741 2742 2743 2744 2745 2746 2747 2748 2749 2750 2751 2752 2753 2754 2755 2756 2757 2758 2759 2760  0
2761 2762 2763 2764 2765 2766 2767 2768 2769 2770 2771 2772 2773 2774 2775 2776 2777 2778 2779 2780 2781 2782 2783 2784 2785 2786 2787 2788 2789 2790 2791 2792 2793 2794 2795 2796 2797 2798 2799 2800 2801 2802 2803 2804 2805 2806 2807 2808 2809 2810 2811 2812 2813 2814 2815 2816 2817 2818 2819 2820  0
2821 2822 2823 2824 2825 2826 2827 2828 2829 2830 2831 2832 2833 2834 2835 2836 2837 2838 2839 2840 2841 2842 2843 2844 2845 2846 2847 2848 2849 2850 2851 2852 2853 2854 2855 2856 2857 2858 2859 2860 2861 2862 2863 2864 2865 2866 2867 2868 2869 2870 2871 2872 2873 2874 2875 2876 2877 2878 2879 2880  0
2881 2882 2883 2884 2885 2886 2887 2888 2889 2890 2891 2892 2893 2894 2895 2896 2897 2898 2899 2900 2901 2902 2903 2904 2905 2906 2907 2908 2909 2910 2911 2912 2913 2914 2915 2916 2917 2918 2919 2920 2921 2922 2923 2924 2925 2926 2927 2928 2929 2930 2931 2932 2933 2934 2935 2936 2937 2938 2939 2940  0
2941 2942 2943 2944 2945 2946 2947 2948 2949 2950 2951 2952 2953 2954 2955 2956 2957 2958 2959 2960 2961 2962 2963 2964 2965 2966 2967 2968 2969 2970 2971 2972 2973 2974 2975 2976 2977 2978 2979 2980 2981 2982 2983 2984 2985 2986 2987 2988 2989 2990 2991 2992 2993 2994 2995 2996 2997 2998 2999 3000  0
3001 3002 3003 3004 3005 3006 3007 3008 3009 3010 3011 3012 3013 3014 3015 3016 3017 3018 3019 3020 3021 3022 3023 3024 3025 3026 3027 3028 3029 3030 3031 3032 3033 3034 3035 3036 3037 3038 3039 3040 3041 3042 3043 3044 3045 3046 3047 3048 3049 3050 3051 3052 3053 3054 3055 3056 3057 3058 3059 3060  0
3061 3062 3063 3064 3065 3066 3067 3068 3069 3070 3071 3072 3073 3074 3075 3076 3077 3078 3079 3080 3081 3082 3083 3084 3085 3086 3087 3088 3089 3090 3091 3092 3093 3094 3095 3096 3097 3098 3099 3100 3101 3102 3103 3104 3105 3106 3107 3108 3109 3110 3111 3112 3113 3114 3115 3116 3117 3118 3119 3120  0
3121 3122 3123 3124 3125 3126 3127 3128 3129 3130 3131 3132 3133 3134 3135 3136 3137 3138 3139 3140 3141 3142 3143 3144 3145 3146 3147 3148 3149 3150 3151 3152 3153 3154 3155 3156 3157 3158 3159 3160 3161 3162 3163 3164 3165 3166 3167 3168 3169 3170 3171 3172 3173 3174 3175 3176 3177 3178 3179 3180  0
3181 3182 3183 3184 3185 3186 3187 3188 3189 3190 3191 3192 3193 3194 3195 3196 3197 3198 3199 3200 3201 3202 3203 3204 3205 3206 3207 3208 3209 3210 3211 3212 3213 3214 3215 3216 3217 3218 3219 3220 3221 3222 3223 3224 3225 3226 3227 3228 3229 3230 3231 3232 3233 3234 3235 3236 3237 3238 3239 3240  0
3241 3242 3243 3244 3245 3246 3247 3248 3249 3250 3251 3252 3253 3254 3255 3256 3257 3258 3259 3260 3261 3262 3263 3264 3265 3266 3267 3268 3269 3270 3271 3272 3273 3274 3275 3276 3277 3278 3279 3280 3281 3282 3283 3284 3285 3286 3287 3288 3289 3290 3291 3292 3293 3294 3295 3296 3297 3298 3299 3300  0
3301 3302 3303 3304 3305 3306 3307 3308 3309 3310 3311 3312 3313 3314 3315 3316 3317 3318 3319 3320 3321 3322 3323 3324 3325 3326 3327 3328 3329 3330 3331 3332 3333 3334 3335 3336 3337 3338 3339 3340 3341 3342 3343 3344 3345 3346 3347 3348 3349 3350 3351 3352 3353 3354 3355 3356 3357 3358 3359 3360  0
3361 3362 3363 3364 3365 3366 3367 3368 3369 3370 3371 3372 3373 3374 3375 3376 3377 3378 3379 3380 3381 3382 3383 3384 3385 3386 3387 3388 3389 3390 3391 3392 3393 3394 3395 3396 3397 3398 3399 3400 3401 3402 3403 3404 3405 3406 3407 3408 3409 3410 3411 3412 3413 3414 3415 3416 3417 3418 3419 3420  0
3421 3422 3423 3424 3425 3426 3427 3428 3429 3430 3431 3432 3433 3434 3435 3436 3437 3438 3439 3440 3441 3442 3443 3444 3445 3446 3447 3448 3449 3450 3451 3452 3453 3454 3455 3456 3457 3458 3459 3460 3461 3462 3463 3464 3465 3466 3467 3468 3469 3470 3471 3472 3473 3474 3475 3476 3477 3478 3479 3480  0
3481 3482 3483 3484 3485 3486 3487 3488 3489 3490 3491 3492 3493 3494 3495 3496 3497 3498 3499 3500 3501 3502 3503 3504 3505 3506 3507 3508 3509 3510 3511 3512 3513 3514 3515 3516 3517 3518 3519 3520 3521 3522 3523 3524 3525 3526 3527 3528 3529 3530 3531 3532 3533 3534 3535 3536 3537 3538 3539 3540  0
3541 3542 3543 3544 3545 3546 3547 3548 3549 3550 3551 3552 3553 3554 3555 3556 3557 3558 3559 3560 3561 3562 3563 3564 3565 3566 3567 3568 3569 3570 3571 3572 3573 3574 3575 3576 3577 3578 3579 3580 3581 3582 3583 3584 3585 3586 3587 3588 3589 3590 3591 3592 3593 3594 3595 3596 3597 3598 3599 3600  0
3601 3602 3603 3604 3605 3606 3607 3608 3609 3610 3611 3612 3613 3614 3615 3616 3617 3618 3619 3620 3621 3622 3623 3624 3625 3626 3627 3628 3629 3630 3631 3632 3633 3634 3635 3636 3637 3638 3639 3640 3641 3642 3643 3644 3645 3646 3647 3648 3649 3650 3651 3652 3653 3654 3655 3656 3657 3658 3659 3660  0
3661 3662 3663 3664 3665 3666 3667 3668 3669 3670 3671 3672 3673 3674 3675 3676 3677 3678 3679 3680 3681 3682 3683 3684 3685 3686 3687 3688 3689 3690 3691 3692 3693 3694 3695 3696 3697 3698 3699 3700 3701 3702 3703 3704 3705 3706 3707 3708 3709 3710 3711 3712 3713 3714 3715 3716 3717 3718 3719 3720  0
3721 3722 3723 3724 3725 3726 3727 3728 3729 3730 3731 3732 3733 3734 3735 3736 3737 3738 3739 3740 3741 3742 3743 3744 3745 3746 3747 3748 3749 3750 3751 3752 3753 3754 3755 3756 3757 3758 3759 3760 3761 3762 3763 3764 3765 3766 3767 3768 3769 3770 3771 3772 3773 3774 3775 3776 3777 3778 3779 3780  0
3781 3782 3783 3784 3785 3786 3787 3788 3789 3790 3791 3792 3793 3794 3795 3796 3797 3798 3799 3800 3801 3802 3803 3804 3805 3806 3807 3808 3809 3810 3811 3812 3813 3814 3815 3816 3817 3818 3819 3820 3821 3822 3823 3824 3825 3826 3827 3828 3829 3830 3831 3832 3833 3834 3835 3836 3837 3838 3839 3840  0
3841 3842 3843 3844 3845 3846 3847 3848 3849 3850 3851 3852 3853 3854 3855 3856 3857 3858 3859 3860 3861 3862 3863 3864 3865 3866 3867 3868 3869 3870 3871 3872 3873 3874 3875 3876 3877 3878 3879 3880 3881 3882 3883 3884 3885 3886 3887 3888 3889 3890 3891 3892 3893 3894 3895 3896 3897 3898 3899 3900  0
3901 3902 3903 3904 3905 3906 3907 3908 3909 3910 3911 3912 3913 3914 3915 3916 3917 3918 3919 3920 3921 3922 3923 3924 3925 3926 3927 3928 3929 3930 3931 3932 3933 3934 3935 3936 3937 3938 3939 3940 3941 3942 3943 3944 3945 3946 3947 3948 3949 3950 3951 3952 3953 3954 3955 3956 3957 3958 3959 3960  0
3961 3962 3963 3964 3965 3966 3967 3968 3969 3970 3971 3972 3973 3974 3975 3976 3977 3978 3979 3980 3981 3982 3983 3984 3985 3986 3987 3988 3989 3990 3991 3992 3993 3994 3995 3996 3997 3998 3999 4000 4001 4002 4003 4004 4005 4006 4007 4008 4009 4010 4011 4012 4013 4014 4015 4016 4017 4018 4019 4020  0
4021 4022 4023 4024 4025 4026 4027 4028 4029 4030 4031 4032 4033 4034 4035 4036 4037 4038 4039 4040 4041 4042 4043 4044 4045 4046 4047 4048 4049 4050 4051 4052 4053 4054 4055 4056 4057 4058 4059 4060 4061 4062 4063 4064 4065 4066 4067 4068 4069 4070 4071 4072 4073 4074 4075 4076 4077 4078 4079 4080  0
4081 4082 4083 4084 4085 4086 4087 4088 4089 4090 4091 4092 4093 4094 4095 4096 4097 4098 4099 4100 4101 4102 4103 4104 4105 4106 4107 4108 4109 4110 4111 4112 4113 4114 4115 4116 4117 4118 4119 4120 4121 4122 4123 4124 4125 4126 4127 4128 4129 4130 4131 4132 4133 4134 4135 4136 4137 4138 4139 4140  0
4141 4142 4143 4144 4145 4146 4147 4148 4149 4150 4151 4152 4153 4154 4155 4156 4157 4158 4159 4160 4161 4162 4163 4164 4165 4166 4167 4168 4169 4170 4171 4172 4173 4174 4175 4176 4177 4178 4179 4180 4181 4182 4183 4184 4185 4186 4187 4188 4189 4190 4191 4192 4193 4194 4195 4196 4197 4198 4199 4200  0
4201 4202 4203 4204 4205 4206 4207 4208 4209 4210 4211 4212 4213 4214 4215 4216 4217 4218 4219 4220 4221 4222 4223 4224 4225 4226 4227 4228 4229 4230 4231 4232 4233 4234 4235 4236 4237 4238 4239 4240 4241 4242 4243 4244 4245 4246 4247 4248 4249 4250 4251 4252 4253 4254 4255 4256 4257 4258 4259 4260  0
4261 4262 4263 4264 4265 4266 4267 4268 4269 4270 4271 4272 4273 4274 4275 4276 4277 4278 4279 4280 4281 4282 4283 4284 4285 4286 4287 4288 4289 4290 4291 4292 4293 4294 4295 4296 4297 4298 4299 4300 4301 4302 4303 4304 4305 4306 4307 4308 4309 4310 4311 4312 4313 4314 4315 4316 4317 4318 4319 4320  0
4321 4322 4323 4324 4325 4326 4327 4328 4329 4330 4331 4332 4333 4334 4335 4336 4337 4338 4339 4340 4341 4342 4343 4344 4345 4346 4347 4348 4349 4350 4351 4352 4353 4354 4355 4356 4357 4358 4359 4360 4361 4362 4363 4364 4365 4366 4367 4368 4369 4370 4371 4372 4373 4374 4375 4376 4377 4378 4379 4380  0
4381 4382 4383 4384 4385 4386 4387 4388 4389 4390 4391 4392 4393 4394 4395 4396 4397 4398 4399 4400 4401 4402 4403 4404 4405 4406 4407 4408 4409 4410 4411 4412 4413 4414 4415 4416 4417 4418 4419 4420 4421 4422 4423 4424 4425 4426 4427 4428 4429 4430 4431 4432 4433 4434 4435 4436 4437 4438 4439 4440  0
4441 4442 4443 4444 4445 4446 4447 4448 4449 4450 4451 4452 4453 4454 4455 4456 4457 4458 4459 4460 4461 4462 4463 4464 4465 4466 4467 4468 4469 4470 4471 4472 4473 4474 4475 4476 4477 4478 4479 4480 4481 4482 4483 4484 4485 4486 4487 4488 4489 4490 4491 4492 4493 4494 4495 4496 4497 4498 4499 4500  0
4501 4502 4503 4504 4505 4506 4507 4508 4509 4510 4511 4512 4513 4514 4515 4516 4517 4518 4519 4520 4521 4522 4523 4524 4525 4526 4527 4528 4529 4530 4531 4532 4533 4534 4535 4536 4537 4538 4539 4540 4541 4542 4543 4544 4545 4546 4547 4548 4549 4550 4551 4552 4553 4554 4555 4556 4557 4558 4559 4560  0
4561 4562 4563 4564 4565 4566 4567 4568 4569 4570 4571 4572 4573 4574 4575 4576 4577 4578 4579 4580 4581 4582 4583 4584 4585 4586 4587 4588 4589 4590 4591 4592 4593 4594 4595 4596 4597 4598 4599 4600 4601 4602 4603 4604 4605 4606 4607 4608 4609 4610 4611 4612 4613 4614 4615 4616 4617 4618 4619 4620  0
4621 4622 4623 4624 4625 4626 4627 4628 4629 4630 4631 4632 4633 4634 4635 4636 4637 4638 4639 4640 4641 4642 4643 4644 4645 4646 4647 4648 4649 4650 4651 4652 4653 4654 4655 4656 4657 4658 4659 4660 4661 4662 4663 4664 4665 4666 4667 4668 4669 4670 4671 4672 4673 4674 4675 4676 4677 4678 4679 4680  0
4681 4682 4683 4684 4685 4686 4687 4688 4689 4690 4691 4692 4693 4694 4695 4696 4697 4698 4699 4700 4701 4702 4703 4704 4705 4706 4707 4708 4709 4710 4711 4712 4713 4714 4715 4716 4717 4718 4719 4720 4721 4722 4723 4724 4725 4726 4727 4728 4729 4730 4731 4732 4733 4734 4735 4736 4737 4738 4739 4740  0
4741 4742 4743 4744 4745 4746 4747 4748 4749 4750 4751 4752 4753 4754 4755 4756 4757 4758 4759 4760 4761 4762 4763 4764 4765 4766 4767 4768 4769 4770 4771 4772 4773 4774 4775 4776 4777 4778 4779 4780 4781 4782 4783 4784 4785 4786 4787 4788 4789 4790 4791 4792 4793 4794 4795 4796 4797 4798 4799 4800  0
-1 -781 0
-2 -782 0
-3 -783 0
-4 -784 0
-5 -785 0
-6 -786 0
-7 -787 0
-8 -788 0
-9 -789 0
-10 -790 0
-11 -791 0
-12 -792 0
-13 -793 0
-14 -794 0
-15 -795 0
-16 -796 0
-17 -797 0
-18 -798 0
-19 -799 0
-20 -800 0
-21 -801 0
-22 -802 0
-23 -803 0
-24 -804 0
-25 -805 0
-26 -806 0
-27 -807 0
-28 -808 0
-29 -809 0
-30 -810 0
-31 -811 0
-32 -812 0
-33 -813 0
-34 -814 0
-35 -815 0
-36 -816 0
-37 -817 0
-38 -818 0
-39 -819 0
-40 -820 0
-41 -821 0
-42 -822 0
-43 -823 0
-44 -824 0
-45 -825 0
-46 -826 0
-47 -827 0
-48 -828 0
-49 -829 0
-50 -830 0
-51 -831 0
-52 -832 0
-53 -833 0
-54 -834 0
-55 -835 0
-56 -836 0
-57 -837 0
-58 -838 0
-59 -839 0
-60 -840 0
-61 -781 0
-62 -782 0
-63 -783 0
-64 -784 0
-65 -785 0
-66 -786 0
-67 -787 0
-68 -788 0
-69 -789 0
-70 -790 0
-71 -791 0
-72 -792 0
-73 -793 0
-74 -794 0
-75 -795 0
-76 -796 0
-77 -797 0
-78 -798 0
-79 -799 0
-80 -800 0
-81 -801 0
-82 -802 0
-83 -803 0
-84 -804 0
-85 -805 0
-86 -806 0
-87 -807 0
-88 -808 0
-89 -809 0
-90 -810 0
-91 -811 0
-92 -812 0
-93 -813 0
-94 -814 0
-95 -815 0
-96 -816 0
-97 -817 0
-98 -818 0
-99 -819 0
-100 -820 0
-101 -821 0
-102 -822 0
-103 -823 0
-104 -824 0
-105 -825 0
-106 -826 0
-107 -827 0
-108 -828 0
-109 -829 0
-110 -830 0
-111 -831 0
-112 -832 0
-113 -833 0
-114 -834 0
-115 -835 0
-116 -836 0
-117 -837 0
-118 -838 0
-119 -839 0
-120 -840 0
-61 -2161 0
-62 -2162 0
-63 -2163 0
-64 -2164 0
-65 -2165 0
-66 -2166 0
-67 -2167 0
-68 -2168 0
-69 -2169 0
-70 -2170 0
-71 -2171 0
-72 -2172 0
-73 -2173 0
-74 -2174 0
-75 -2175 0
-76 -2176 0
-77 -2177 0
-78 -2178 0
-79 -2179 0
-80 -2180 0
-81 -2181 0
-82 -2182 0
-83 -2183 0
-84 -2184 0
-85 -2185 0
-86 -2186 0
-87 -2187 0
-88 -2188 0
-89 -2189 0
-90 -2190 0
-91 -2191 0
-92 -2192 0
-93 -2193 0
-94 -2194 0
-95 -2195 0
-96 -2196 0
-97 -2197 0
-98 -2198 0
-99 -2199 0
-100 -2200 0
-101 -2201 0
-102 -2202 0
-103 -2203 0
-104 -2204 0
-105 -2205 0
-106 -2206 0
-107 -2207 0
-108 -2208 0
-109 -2209 0
-110 -2210 0
-111 -2211 0
-112 -2212 0
-113 -2213 0
-114 -2214 0
-115 -2215 0
-116 -2216 0
-117 -2217 0
-118 -2218 0
-119 -2219 0
-120 -2220 0
-61 -4441 0
-62 -4442 0
-63 -4443 0
-64 -4444 0
-65 -4445 0
-66 -4446 0
-67 -4447 0
-68 -4448 0
-69 -4449 0
-70 -4450 0
-71 -4451 0
-72 -4452 0
-73 -4453 0
-74 -4454 0
-75 -4455 0
-76 -4456 0
-77 -4457 0
-78 -4458 0
-79 -4459 0
-80 -4460 0
-81 -4461 0
-82 -4462 0
-83 -4463 0
-84 -4464 0
-85 -4465 0
-86 -4466 0
-87 -4467 0
-88 -4468 0
-89 -4469 0
-90 -4470 0
-91 -4471 0
-92 -4472 0
-93 -4473 0
-94 -4474 0
-95 -4475 0
-96 -4476 0
-97 -4477 0
-98 -4478 0
-99 -4479 0
-100 -4480 0
-101 -4481 0
-102 -4482 0
-103 -4483 0
-104 -4484 0
-105 -4485 0
-106 -4486 0
-107 -4487 0
-108 -4488 0
-109 -4489 0
-110 -4490 0
-111 -4491 0
-112 -4492 0
-113 -4493 0
-114 -4494 0
-115 -4495 0
-116 -4496 0
-117 -4497 0
-118 -4498 0
-119 -4499 0
-120 -4500 0
-121 -241 0
-122 -242 0
-123 -243 0
-124 -244 0
-125 -245 0
-126 -246 0
-127 -247 0
-128 -248 0
-129 -249 0
-130 -250 0
-131 -251 0
-132 -252 0
-133 -253 0
-134 -254 0
-135 -255 0
-136 -256 0
-137 -257 0
-138 -258 0
-139 -259 0
-140 -260 0
-141 -261 0
-142 -262 0
-143 -263 0
-144 -264 0
-145 -265 0
-146 -266 0
-147 -267 0
-148 -268 0
-149 -269 0
-150 -270 0
-151 -271 0
-152 -272 0
-153 -273 0
-154 -274 0
-155 -275 0
-156 -276 0
-157 -277 0
-158 -278 0
-159 -279 0
-160 -280 0
-161 -281 0
-162 -282 0
-163 -283 0
-164 -284 0
-165 -285 0
-166 -286 0
-167 -287 0
-168 -288 0
-169 -289 0
-170 -290 0
-171 -291 0
-172 -292 0
-173 -293 0
-174 -294 0
-175 -295 0
-176 -296 0
-177 -297 0
-178 -298 0
-179 -299 0
-180 -300 0
-121 -1441 0
-122 -1442 0
-123 -1443 0
-124 -1444 0
-125 -1445 0
-126 -1446 0
-127 -1447 0
-128 -1448 0
-129 -1449 0
-130 -1450 0
-131 -1451 0
-132 -1452 0
-133 -1453 0
-134 -1454 0
-135 -1455 0
-136 -1456 0
-137 -1457 0
-138 -1458 0
-139 -1459 0
-140 -1460 0
-141 -1461 0
-142 -1462 0
-143 -1463 0
-144 -1464 0
-145 -1465 0
-146 -1466 0
-147 -1467 0
-148 -1468 0
-149 -1469 0
-150 -1470 0
-151 -1471 0
-152 -1472 0
-153 -1473 0
-154 -1474 0
-155 -1475 0
-156 -1476 0
-157 -1477 0
-158 -1478 0
-159 -1479 0
-160 -1480 0
-161 -1481 0
-162 -1482 0
-163 -1483 0
-164 -1484 0
-165 -1485 0
-166 -1486 0
-167 -1487 0
-168 -1488 0
-169 -1489 0
-170 -1490 0
-171 -1491 0
-172 -1492 0
-173 -1493 0
-174 -1494 0
-175 -1495 0
-176 -1496 0
-177 -1497 0
-178 -1498 0
-179 -1499 0
-180 -1500 0
-121 -1561 0
-122 -1562 0
-123 -1563 0
-124 -1564 0
-125 -1565 0
-126 -1566 0
-127 -1567 0
-128 -1568 0
-129 -1569 0
-130 -1570 0
-131 -1571 0
-132 -1572 0
-133 -1573 0
-134 -1574 0
-135 -1575 0
-136 -1576 0
-137 -1577 0
-138 -1578 0
-139 -1579 0
-140 -1580 0
-141 -1581 0
-142 -1582 0
-143 -1583 0
-144 -1584 0
-145 -1585 0
-146 -1586 0
-147 -1587 0
-148 -1588 0
-149 -1589 0
-150 -1590 0
-151 -1591 0
-152 -1592 0
-153 -1593 0
-154 -1594 0
-155 -1595 0
-156 -1596 0
-157 -1597 0
-158 -1598 0
-159 -1599 0
-160 -1600 0
-161 -1601 0
-162 -1602 0
-163 -1603 0
-164 -1604 0
-165 -1605 0
-166 -1606 0
-167 -1607 0
-168 -1608 0
-169 -1609 0
-170 -1610 0
-171 -1611 0
-172 -1612 0
-173 -1613 0
-174 -1614 0
-175 -1615 0
-176 -1616 0
-177 -1617 0
-178 -1618 0
-179 -1619 0
-180 -1620 0
-121 -1621 0
-122 -1622 0
-123 -1623 0
-124 -1624 0
-125 -1625 0
-126 -1626 0
-127 -1627 0
-128 -1628 0
-129 -1629 0
-130 -1630 0
-131 -1631 0
-132 -1632 0
-133 -1633 0
-134 -1634 0
-135 -1635 0
-136 -1636 0
-137 -1637 0
-138 -1638 0
-139 -1639 0
-140 -1640 0
-141 -1641 0
-142 -1642 0
-143 -1643 0
-144 -1644 0
-145 -1645 0
-146 -1646 0
-147 -1647 0
-148 -1648 0
-149 -1649 0
-150 -1650 0
-151 -1651 0
-152 -1652 0
-153 -1653 0
-154 -1654 0
-155 -1655 0
-156 -1656 0
-157 -1657 0
-158 -1658 0
-159 -1659 0
-160 -1660 0
-161 -1661 0
-162 -1662 0
-163 -1663 0
-164 -1664 0
-165 -1665 0
-166 -1666 0
-167 -1667 0
-168 -1668 0
-169 -1669 0
-170 -1670 0
-171 -1671 0
-172 -1672 0
-173 -1673 0
-174 -1674 0
-175 -1675 0
-176 -1676 0
-177 -1677 0
-178 -1678 0
-179 -1679 0
-180 -1680 0
-121 -1921 0
-122 -1922 0
-123 -1923 0
-124 -1924 0
-125 -1925 0
-126 -1926 0
-127 -1927 0
-128 -1928 0
-129 -1929 0
-130 -1930 0
-131 -1931 0
-132 -1932 0
-133 -1933 0
-134 -1934 0
-135 -1935 0
-136 -1936 0
-137 -1937 0
-138 -1938 0
-139 -1939 0
-140 -1940 0
-141 -1941 0
-142 -1942 0
-143 -1943 0
-144 -1944 0
-145 -1945 0
-146 -1946 0
-147 -1947 0
-148 -1948 0
-149 -1949 0
-150 -1950 0
-151 -1951 0
-152 -1952 0
-153 -1953 0
-154 -1954 0
-155 -1955 0
-156 -1956 0
-157 -1957 0
-158 -1958 0
-159 -1959 0
-160 -1960 0
-161 -1961 0
-162 -1962 0
-163 -1963 0
-164 -1964 0
-165 -1965 0
-166 -1966 0
-167 -1967 0
-168 -1968 0
-169 -1969 0
-170 -1970 0
-171 -1971 0
-172 -1972 0
-173 -1973 0
-174 -1974 0
-175 -1975 0
-176 -1976 0
-177 -1977 0
-178 -1978 0
-179 -1979 0
-180 -1980 0
-121 -2161 0
-122 -2162 0
-123 -2163 0
-124 -2164 0
-125 -2165 0
-126 -2166 0
-127 -2167 0
-128 -2168 0
-129 -2169 0
-130 -2170 0
-131 -2171 0
-132 -2172 0
-133 -2173 0
-134 -2174 0
-135 -2175 0
-136 -2176 0
-137 -2177 0
-138 -2178 0
-139 -2179 0
-140 -2180 0
-141 -2181 0
-142 -2182 0
-143 -2183 0
-144 -2184 0
-145 -2185 0
-146 -2186 0
-147 -2187 0
-148 -2188 0
-149 -2189 0
-150 -2190 0
-151 -2191 0
-152 -2192 0
-153 -2193 0
-154 -2194 0
-155 -2195 0
-156 -2196 0
-157 -2197 0
-158 -2198 0
-159 -2199 0
-160 -2200 0
-161 -2201 0
-162 -2202 0
-163 -2203 0
-164 -2204 0
-165 -2205 0
-166 -2206 0
-167 -2207 0
-168 -2208 0
-169 -2209 0
-170 -2210 0
-171 -2211 0
-172 -2212 0
-173 -2213 0
-174 -2214 0
-175 -2215 0
-176 -2216 0
-177 -2217 0
-178 -2218 0
-179 -2219 0
-180 -2220 0
-121 -2341 0
-122 -2342 0
-123 -2343 0
-124 -2344 0
-125 -2345 0
-126 -2346 0
-127 -2347 0
-128 -2348 0
-129 -2349 0
-130 -2350 0
-131 -2351 0
-132 -2352 0
-133 -2353 0
-134 -2354 0
-135 -2355 0
-136 -2356 0
-137 -2357 0
-138 -2358 0
-139 -2359 0
-140 -2360 0
-141 -2361 0
-142 -2362 0
-143 -2363 0
-144 -2364 0
-145 -2365 0
-146 -2366 0
-147 -2367 0
-148 -2368 0
-149 -2369 0
-150 -2370 0
-151 -2371 0
-152 -2372 0
-153 -2373 0
-154 -2374 0
-155 -2375 0
-156 -2376 0
-157 -2377 0
-158 -2378 0
-159 -2379 0
-160 -2380 0
-161 -2381 0
-162 -2382 0
-163 -2383 0
-164 -2384 0
-165 -2385 0
-166 -2386 0
-167 -2387 0
-168 -2388 0
-169 -2389 0
-170 -2390 0
-171 -2391 0
-172 -2392 0
-173 -2393 0
-174 -2394 0
-175 -2395 0
-176 -2396 0
-177 -2397 0
-178 -2398 0
-179 -2399 0
-180 -2400 0
-121 -2581 0
-122 -2582 0
-123 -2583 0
-124 -2584 0
-125 -2585 0
-126 -2586 0
-127 -2587 0
-128 -2588 0
-129 -2589 0
-130 -2590 0
-131 -2591 0
-132 -2592 0
-133 -2593 0
-134 -2594 0
-135 -2595 0
-136 -2596 0
-137 -2597 0
-138 -2598 0
-139 -2599 0
-140 -2600 0
-141 -2601 0
-142 -2602 0
-143 -2603 0
-144 -2604 0
-145 -2605 0
-146 -2606 0
-147 -2607 0
-148 -2608 0
-149 -2609 0
-150 -2610 0
-151 -2611 0
-152 -2612 0
-153 -2613 0
-154 -2614 0
-155 -2615 0
-156 -2616 0
-157 -2617 0
-158 -2618 0
-159 -2619 0
-160 -2620 0
-161 -2621 0
-162 -2622 0
-163 -2623 0
-164 -2624 0
-165 -2625 0
-166 -2626 0
-167 -2627 0
-168 -2628 0
-169 -2629 0
-170 -2630 0
-171 -2631 0
-172 -2632 0
-173 -2633 0
-174 -2634 0
-175 -2635 0
-176 -2636 0
-177 -2637 0
-178 -2638 0
-179 -2639 0
-180 -2640 0
-121 -2701 0
-122 -2702 0
-123 -2703 0
-124 -2704 0
-125 -2705 0
-126 -2706 0
-127 -2707 0
-128 -2708 0
-129 -2709 0
-130 -2710 0
-131 -2711 0
-132 -2712 0
-133 -2713 0
-134 -2714 0
-135 -2715 0
-136 -2716 0
-137 -2717 0
-138 -2718 0
-139 -2719 0
-140 -2720 0
-141 -2721 0
-142 -2722 0
-143 -2723 0
-144 -2724 0
-145 -2725 0
-146 -2726 0
-147 -2727 0
-148 -2728 0
-149 -2729 0
-150 -2730 0
-151 -2731 0
-152 -2732 0
-153 -2733 0
-154 -2734 0
-155 -2735 0
-156 -2736 0
-157 -2737 0
-158 -2738 0
-159 -2739 0
-160 -2740 0
-161 -2741 0
-162 -2742 0
-163 -2743 0
-164 -2744 0
-165 -2745 0
-166 -2746 0
-167 -2747 0
-168 -2748 0
-169 -2749 0
-170 -2750 0
-171 -2751 0
-172 -2752 0
-173 -2753 0
-174 -2754 0
-175 -2755 0
-176 -2756 0
-177 -2757 0
-178 -2758 0
-179 -2759 0
-180 -2760 0
-121 -3181 0
-122 -3182 0
-123 -3183 0
-124 -3184 0
-125 -3185 0
-126 -3186 0
-127 -3187 0
-128 -3188 0
-129 -3189 0
-130 -3190 0
-131 -3191 0
-132 -3192 0
-133 -3193 0
-134 -3194 0
-135 -3195 0
-136 -3196 0
-137 -3197 0
-138 -3198 0
-139 -3199 0
-140 -3200 0
-141 -3201 0
-142 -3202 0
-143 -3203 0
-144 -3204 0
-145 -3205 0
-146 -3206 0
-147 -3207 0
-148 -3208 0
-149 -3209 0
-150 -3210 0
-151 -3211 0
-152 -3212 0
-153 -3213 0
-154 -3214 0
-155 -3215 0
-156 -3216 0
-157 -3217 0
-158 -3218 0
-159 -3219 0
-160 -3220 0
-161 -3221 0
-162 -3222 0
-163 -3223 0
-164 -3224 0
-165 -3225 0
-166 -3226 0
-167 -3227 0
-168 -3228 0
-169 -3229 0
-170 -3230 0
-171 -3231 0
-172 -3232 0
-173 -3233 0
-174 -3234 0
-175 -3235 0
-176 -3236 0
-177 -3237 0
-178 -3238 0
-179 -3239 0
-180 -3240 0
-121 -3361 0
-122 -3362 0
-123 -3363 0
-124 -3364 0
-125 -3365 0
-126 -3366 0
-127 -3367 0
-128 -3368 0
-129 -3369 0
-130 -3370 0
-131 -3371 0
-132 -3372 0
-133 -3373 0
-134 -3374 0
-135 -3375 0
-136 -3376 0
-137 -3377 0
-138 -3378 0
-139 -3379 0
-140 -3380 0
-141 -3381 0
-142 -3382 0
-143 -3383 0
-144 -3384 0
-145 -3385 0
-146 -3386 0
-147 -3387 0
-148 -3388 0
-149 -3389 0
-150 -3390 0
-151 -3391 0
-152 -3392 0
-153 -3393 0
-154 -3394 0
-155 -3395 0
-156 -3396 0
-157 -3397 0
-158 -3398 0
-159 -3399 0
-160 -3400 0
-161 -3401 0
-162 -3402 0
-163 -3403 0
-164 -3404 0
-165 -3405 0
-166 -3406 0
-167 -3407 0
-168 -3408 0
-169 -3409 0
-170 -3410 0
-171 -3411 0
-172 -3412 0
-173 -3413 0
-174 -3414 0
-175 -3415 0
-176 -3416 0
-177 -3417 0
-178 -3418 0
-179 -3419 0
-180 -3420 0
-121 -3541 0
-122 -3542 0
-123 -3543 0
-124 -3544 0
-125 -3545 0
-126 -3546 0
-127 -3547 0
-128 -3548 0
-129 -3549 0
-130 -3550 0
-131 -3551 0
-132 -3552 0
-133 -3553 0
-134 -3554 0
-135 -3555 0
-136 -3556 0
-137 -3557 0
-138 -3558 0
-139 -3559 0
-140 -3560 0
-141 -3561 0
-142 -3562 0
-143 -3563 0
-144 -3564 0
-145 -3565 0
-146 -3566 0
-147 -3567 0
-148 -3568 0
-149 -3569 0
-150 -3570 0
-151 -3571 0
-152 -3572 0
-153 -3573 0
-154 -3574 0
-155 -3575 0
-156 -3576 0
-157 -3577 0
-158 -3578 0
-159 -3579 0
-160 -3580 0
-161 -3581 0
-162 -3582 0
-163 -3583 0
-164 -3584 0
-165 -3585 0
-166 -3586 0
-167 -3587 0
-168 -3588 0
-169 -3589 0
-170 -3590 0
-171 -3591 0
-172 -3592 0
-173 -3593 0
-174 -3594 0
-175 -3595 0
-176 -3596 0
-177 -3597 0
-178 -3598 0
-179 -3599 0
-180 -3600 0
-121 -3721 0
-122 -3722 0
-123 -3723 0
-124 -3724 0
-125 -3725 0
-126 -3726 0
-127 -3727 0
-128 -3728 0
-129 -3729 0
-130 -3730 0
-131 -3731 0
-132 -3732 0
-133 -3733 0
-134 -3734 0
-135 -3735 0
-136 -3736 0
-137 -3737 0
-138 -3738 0
-139 -3739 0
-140 -3740 0
-141 -3741 0
-142 -3742 0
-143 -3743 0
-144 -3744 0
-145 -3745 0
-146 -3746 0
-147 -3747 0
-148 -3748 0
-149 -3749 0
-150 -3750 0
-151 -3751 0
-152 -3752 0
-153 -3753 0
-154 -3754 0
-155 -3755 0
-156 -3756 0
-157 -3757 0
-158 -3758 0
-159 -3759 0
-160 -3760 0
-161 -3761 0
-162 -3762 0
-163 -3763 0
-164 -3764 0
-165 -3765 0
-166 -3766 0
-167 -3767 0
-168 -3768 0
-169 -3769 0
-170 -3770 0
-171 -3771 0
-172 -3772 0
-173 -3773 0
-174 -3774 0
-175 -3775 0
-176 -3776 0
-177 -3777 0
-178 -3778 0
-179 -3779 0
-180 -3780 0
-121 -4081 0
-122 -4082 0
-123 -4083 0
-124 -4084 0
-125 -4085 0
-126 -4086 0
-127 -4087 0
-128 -4088 0
-129 -4089 0
-130 -4090 0
-131 -4091 0
-132 -4092 0
-133 -4093 0
-134 -4094 0
-135 -4095 0
-136 -4096 0
-137 -4097 0
-138 -4098 0
-139 -4099 0
-140 -4100 0
-141 -4101 0
-142 -4102 0
-143 -4103 0
-144 -4104 0
-145 -4105 0
-146 -4106 0
-147 -4107 0
-148 -4108 0
-149 -4109 0
-150 -4110 0
-151 -4111 0
-152 -4112 0
-153 -4113 0
-154 -4114 0
-155 -4115 0
-156 -4116 0
-157 -4117 0
-158 -4118 0
-159 -4119 0
-160 -4120 0
-161 -4121 0
-162 -4122 0
-163 -4123 0
-164 -4124 0
-165 -4125 0
-166 -4126 0
-167 -4127 0
-168 -4128 0
-169 -4129 0
-170 -4130 0
-171 -4131 0
-172 -4132 0
-173 -4133 0
-174 -4134 0
-175 -4135 0
-176 -4136 0
-177 -4137 0
-178 -4138 0
-179 -4139 0
-180 -4140 0
-121 -4321 0
-122 -4322 0
-123 -4323 0
-124 -4324 0
-125 -4325 0
-126 -4326 0
-127 -4327 0
-128 -4328 0
-129 -4329 0
-130 -4330 0
-131 -4331 0
-132 -4332 0
-133 -4333 0
-134 -4334 0
-135 -4335 0
-136 -4336 0
-137 -4337 0
-138 -4338 0
-139 -4339 0
-140 -4340 0
-141 -4341 0
-142 -4342 0
-143 -4343 0
-144 -4344 0
-145 -4345 0
-146 -4346 0
-147 -4347 0
-148 -4348 0
-149 -4349 0
-150 -4350 0
-151 -4351 0
-152 -4352 0
-153 -4353 0
-154 -4354 0
-155 -4355 0
-156 -4356 0
-157 -4357 0
-158 -4358 0
-159 -4359 0
-160 -4360 0
-161 -4361 0
-162 -4362 0
-163 -4363 0
-164 -4364 0
-165 -4365 0
-166 -4366 0
-167 -4367 0
-168 -4368 0
-169 -4369 0
-170 -4370 0
-171 -4371 0
-172 -4372 0
-173 -4373 0
-174 -4374 0
-175 -4375 0
-176 -4376 0
-177 -4377 0
-178 -4378 0
-179 -4379 0
-180 -4380 0
-181 -361 0
-182 -362 0
-183 -363 0
-184 -364 0
-185 -365 0
-186 -366 0
-187 -367 0
-188 -368 0
-189 -369 0
-190 -370 0
-191 -371 0
-192 -372 0
-193 -373 0
-194 -374 0
-195 -375 0
-196 -376 0
-197 -377 0
-198 -378 0
-199 -379 0
-200 -380 0
-201 -381 0
-202 -382 0
-203 -383 0
-204 -384 0
-205 -385 0
-206 -386 0
-207 -387 0
-208 -388 0
-209 -389 0
-210 -390 0
-211 -391 0
-212 -392 0
-213 -393 0
-214 -394 0
-215 -395 0
-216 -396 0
-217 -397 0
-218 -398 0
-219 -399 0
-220 -400 0
-221 -401 0
-222 -402 0
-223 -403 0
-224 -404 0
-225 -405 0
-226 -406 0
-227 -407 0
-228 -408 0
-229 -409 0
-230 -410 0
-231 -411 0
-232 -412 0
-233 -413 0
-234 -414 0
-235 -415 0
-236 -416 0
-237 -417 0
-238 -418 0
-239 -419 0
-240 -420 0
-181 -481 0
-182 -482 0
-183 -483 0
-184 -484 0
-185 -485 0
-186 -486 0
-187 -487 0
-188 -488 0
-189 -489 0
-190 -490 0
-191 -491 0
-192 -492 0
-193 -493 0
-194 -494 0
-195 -495 0
-196 -496 0
-197 -497 0
-198 -498 0
-199 -499 0
-200 -500 0
-201 -501 0
-202 -502 0
-203 -503 0
-204 -504 0
-205 -505 0
-206 -506 0
-207 -507 0
-208 -508 0
-209 -509 0
-210 -510 0
-211 -511 0
-212 -512 0
-213 -513 0
-214 -514 0
-215 -515 0
-216 -516 0
-217 -517 0
-218 -518 0
-219 -519 0
-220 -520 0
-221 -521 0
-222 -522 0
-223 -523 0
-224 -524 0
-225 -525 0
-226 -526 0
-227 -527 0
-228 -528 0
-229 -529 0
-230 -530 0
-231 -531 0
-232 -532 0
-233 -533 0
-234 -534 0
-235 -535 0
-236 -536 0
-237 -537 0
-238 -538 0
-239 -539 0
-240 -540 0
-181 -1081 0
-182 -1082 0
-183 -1083 0
-184 -1084 0
-185 -1085 0
-186 -1086 0
-187 -1087 0
-188 -1088 0
-189 -1089 0
-190 -1090 0
-191 -1091 0
-192 -1092 0
-193 -1093 0
-194 -1094 0
-195 -1095 0
-196 -1096 0
-197 -1097 0
-198 -1098 0
-199 -1099 0
-200 -1100 0
-201 -1101 0
-202 -1102 0
-203 -1103 0
-204 -1104 0
-205 -1105 0
-206 -1106 0
-207 -1107 0
-208 -1108 0
-209 -1109 0
-210 -1110 0
-211 -1111 0
-212 -1112 0
-213 -1113 0
-214 -1114 0
-215 -1115 0
-216 -1116 0
-217 -1117 0
-218 -1118 0
-219 -1119 0
-220 -1120 0
-221 -1121 0
-222 -1122 0
-223 -1123 0
-224 -1124 0
-225 -1125 0
-226 -1126 0
-227 -1127 0
-228 -1128 0
-229 -1129 0
-230 -1130 0
-231 -1131 0
-232 -1132 0
-233 -1133 0
-234 -1134 0
-235 -1135 0
-236 -1136 0
-237 -1137 0
-238 -1138 0
-239 -1139 0
-240 -1140 0
-181 -1981 0
-182 -1982 0
-183 -1983 0
-184 -1984 0
-185 -1985 0
-186 -1986 0
-187 -1987 0
-188 -1988 0
-189 -1989 0
-190 -1990 0
-191 -1991 0
-192 -1992 0
-193 -1993 0
-194 -1994 0
-195 -1995 0
-196 -1996 0
-197 -1997 0
-198 -1998 0
-199 -1999 0
-200 -2000 0
-201 -2001 0
-202 -2002 0
-203 -2003 0
-204 -2004 0
-205 -2005 0
-206 -2006 0
-207 -2007 0
-208 -2008 0
-209 -2009 0
-210 -2010 0
-211 -2011 0
-212 -2012 0
-213 -2013 0
-214 -2014 0
-215 -2015 0
-216 -2016 0
-217 -2017 0
-218 -2018 0
-219 -2019 0
-220 -2020 0
-221 -2021 0
-222 -2022 0
-223 -2023 0
-224 -2024 0
-225 -2025 0
-226 -2026 0
-227 -2027 0
-228 -2028 0
-229 -2029 0
-230 -2030 0
-231 -2031 0
-232 -2032 0
-233 -2033 0
-234 -2034 0
-235 -2035 0
-236 -2036 0
-237 -2037 0
-238 -2038 0
-239 -2039 0
-240 -2040 0
-181 -2761 0
-182 -2762 0
-183 -2763 0
-184 -2764 0
-185 -2765 0
-186 -2766 0
-187 -2767 0
-188 -2768 0
-189 -2769 0
-190 -2770 0
-191 -2771 0
-192 -2772 0
-193 -2773 0
-194 -2774 0
-195 -2775 0
-196 -2776 0
-197 -2777 0
-198 -2778 0
-199 -2779 0
-200 -2780 0
-201 -2781 0
-202 -2782 0
-203 -2783 0
-204 -2784 0
-205 -2785 0
-206 -2786 0
-207 -2787 0
-208 -2788 0
-209 -2789 0
-210 -2790 0
-211 -2791 0
-212 -2792 0
-213 -2793 0
-214 -2794 0
-215 -2795 0
-216 -2796 0
-217 -2797 0
-218 -2798 0
-219 -2799 0
-220 -2800 0
-221 -2801 0
-222 -2802 0
-223 -2803 0
-224 -2804 0
-225 -2805 0
-226 -2806 0
-227 -2807 0
-228 -2808 0
-229 -2809 0
-230 -2810 0
-231 -2811 0
-232 -2812 0
-233 -2813 0
-234 -2814 0
-235 -2815 0
-236 -2816 0
-237 -2817 0
-238 -2818 0
-239 -2819 0
-240 -2820 0
-181 -2941 0
-182 -2942 0
-183 -2943 0
-184 -2944 0
-185 -2945 0
-186 -2946 0
-187 -2947 0
-188 -2948 0
-189 -2949 0
-190 -2950 0
-191 -2951 0
-192 -2952 0
-193 -2953 0
-194 -2954 0
-195 -2955 0
-196 -2956 0
-197 -2957 0
-198 -2958 0
-199 -2959 0
-200 -2960 0
-201 -2961 0
-202 -2962 0
-203 -2963 0
-204 -2964 0
-205 -2965 0
-206 -2966 0
-207 -2967 0
-208 -2968 0
-209 -2969 0
-210 -2970 0
-211 -2971 0
-212 -2972 0
-213 -2973 0
-214 -2974 0
-215 -2975 0
-216 -2976 0
-217 -2977 0
-218 -2978 0
-219 -2979 0
-220 -2980 0
-221 -2981 0
-222 -2982 0
-223 -2983 0
-224 -2984 0
-225 -2985 0
-226 -2986 0
-227 -2987 0
-228 -2988 0
-229 -2989 0
-230 -2990 0
-231 -2991 0
-232 -2992 0
-233 -2993 0
-234 -2994 0
-235 -2995 0
-236 -2996 0
-237 -2997 0
-238 -2998 0
-239 -2999 0
-240 -3000 0
-181 -3901 0
-182 -3902 0
-183 -3903 0
-184 -3904 0
-185 -3905 0
-186 -3906 0
-187 -3907 0
-188 -3908 0
-189 -3909 0
-190 -3910 0
-191 -3911 0
-192 -3912 0
-193 -3913 0
-194 -3914 0
-195 -3915 0
-196 -3916 0
-197 -3917 0
-198 -3918 0
-199 -3919 0
-200 -3920 0
-201 -3921 0
-202 -3922 0
-203 -3923 0
-204 -3924 0
-205 -3925 0
-206 -3926 0
-207 -3927 0
-208 -3928 0
-209 -3929 0
-210 -3930 0
-211 -3931 0
-212 -3932 0
-213 -3933 0
-214 -3934 0
-215 -3935 0
-216 -3936 0
-217 -3937 0
-218 -3938 0
-219 -3939 0
-220 -3940 0
-221 -3941 0
-222 -3942 0
-223 -3943 0
-224 -3944 0
-225 -3945 0
-226 -3946 0
-227 -3947 0
-228 -3948 0
-229 -3949 0
-230 -3950 0
-231 -3951 0
-232 -3952 0
-233 -3953 0
-234 -3954 0
-235 -3955 0
-236 -3956 0
-237 -3957 0
-238 -3958 0
-239 -3959 0
-240 -3960 0
-181 -4021 0
-182 -4022 0
-183 -4023 0
-184 -4024 0
-185 -4025 0
-186 -4026 0
-187 -4027 0
-188 -4028 0
-189 -4029 0
-190 -4030 0
-191 -4031 0
-192 -4032 0
-193 -4033 0
-194 -4034 0
-195 -4035 0
-196 -4036 0
-197 -4037 0
-198 -4038 0
-199 -4039 0
-200 -4040 0
-201 -4041 0
-202 -4042 0
-203 -4043 0
-204 -4044 0
-205 -4045 0
-206 -4046 0
-207 -4047 0
-208 -4048 0
-209 -4049 0
-210 -4050 0
-211 -4051 0
-212 -4052 0
-213 -4053 0
-214 -4054 0
-215 -4055 0
-216 -4056 0
-217 -4057 0
-218 -4058 0
-219 -4059 0
-220 -4060 0
-221 -4061 0
-222 -4062 0
-223 -4063 0
-224 -4064 0
-225 -4065 0
-226 -4066 0
-227 -4067 0
-228 -4068 0
-229 -4069 0
-230 -4070 0
-231 -4071 0
-232 -4072 0
-233 -4073 0
-234 -4074 0
-235 -4075 0
-236 -4076 0
-237 -4077 0
-238 -4078 0
-239 -4079 0
-240 -4080 0
-181 -4261 0
-182 -4262 0
-183 -4263 0
-184 -4264 0
-185 -4265 0
-186 -4266 0
-187 -4267 0
-188 -4268 0
-189 -4269 0
-190 -4270 0
-191 -4271 0
-192 -4272 0
-193 -4273 0
-194 -4274 0
-195 -4275 0
-196 -4276 0
-197 -4277 0
-198 -4278 0
-199 -4279 0
-200 -4280 0
-201 -4281 0
-202 -4282 0
-203 -4283 0
-204 -4284 0
-205 -4285 0
-206 -4286 0
-207 -4287 0
-208 -4288 0
-209 -4289 0
-210 -4290 0
-211 -4291 0
-212 -4292 0
-213 -4293 0
-214 -4294 0
-215 -4295 0
-216 -4296 0
-217 -4297 0
-218 -4298 0
-219 -4299 0
-220 -4300 0
-221 -4301 0
-222 -4302 0
-223 -4303 0
-224 -4304 0
-225 -4305 0
-226 -4306 0
-227 -4307 0
-228 -4308 0
-229 -4309 0
-230 -4310 0
-231 -4311 0
-232 -4312 0
-233 -4313 0
-234 -4314 0
-235 -4315 0
-236 -4316 0
-237 -4317 0
-238 -4318 0
-239 -4319 0
-240 -4320 0
-181 -4681 0
-182 -4682 0
-183 -4683 0
-184 -4684 0
-185 -4685 0
-186 -4686 0
-187 -4687 0
-188 -4688 0
-189 -4689 0
-190 -4690 0
-191 -4691 0
-192 -4692 0
-193 -4693 0
-194 -4694 0
-195 -4695 0
-196 -4696 0
-197 -4697 0
-198 -4698 0
-199 -4699 0
-200 -4700 0
-201 -4701 0
-202 -4702 0
-203 -4703 0
-204 -4704 0
-205 -4705 0
-206 -4706 0
-207 -4707 0
-208 -4708 0
-209 -4709 0
-210 -4710 0
-211 -4711 0
-212 -4712 0
-213 -4713 0
-214 -4714 0
-215 -4715 0
-216 -4716 0
-217 -4717 0
-218 -4718 0
-219 -4719 0
-220 -4720 0
-221 -4721 0
-222 -4722 0
-223 -4723 0
-224 -4724 0
-225 -4725 0
-226 -4726 0
-227 -4727 0
-228 -4728 0
-229 -4729 0
-230 -4730 0
-231 -4731 0
-232 -4732 0
-233 -4733 0
-234 -4734 0
-235 -4735 0
-236 -4736 0
-237 -4737 0
-238 -4738 0
-239 -4739 0
-240 -4740 0
-241 -121 0
-242 -122 0
-243 -123 0
-244 -124 0
-245 -125 0
-246 -126 0
-247 -127 0
-248 -128 0
-249 -129 0
-250 -130 0
-251 -131 0
-252 -132 0
-253 -133 0
-254 -134 0
-255 -135 0
-256 -136 0
-257 -137 0
-258 -138 0
-259 -139 0
-260 -140 0
-261 -141 0
-262 -142 0
-263 -143 0
-264 -144 0
-265 -145 0
-266 -146 0
-267 -147 0
-268 -148 0
-269 -149 0
-270 -150 0
-271 -151 0
-272 -152 0
-273 -153 0
-274 -154 0
-275 -155 0
-276 -156 0
-277 -157 0
-278 -158 0
-279 -159 0
-280 -160 0
-281 -161 0
-282 -162 0
-283 -163 0
-284 -164 0
-285 -165 0
-286 -166 0
-287 -167 0
-288 -168 0
-289 -169 0
-290 -170 0
-291 -171 0
-292 -172 0
-293 -173 0
-294 -174 0
-295 -175 0
-296 -176 0
-297 -177 0
-298 -178 0
-299 -179 0
-300 -180 0
-241 -541 0
-242 -542 0
-243 -543 0
-244 -544 0
-245 -545 0
-246 -546 0
-247 -547 0
-248 -548 0
-249 -549 0
-250 -550 0
-251 -551 0
-252 -552 0
-253 -553 0
-254 -554 0
-255 -555 0
-256 -556 0
-257 -557 0
-258 -558 0
-259 -559 0
-260 -560 0
-261 -561 0
-262 -562 0
-263 -563 0
-264 -564 0
-265 -565 0
-266 -566 0
-267 -567 0
-268 -568 0
-269 -569 0
-270 -570 0
-271 -571 0
-272 -572 0
-273 -573 0
-274 -574 0
-275 -575 0
-276 -576 0
-277 -577 0
-278 -578 0
-279 -579 0
-280 -580 0
-281 -581 0
-282 -582 0
-283 -583 0
-284 -584 0
-285 -585 0
-286 -586 0
-287 -587 0
-288 -588 0
-289 -589 0
-290 -590 0
-291 -591 0
-292 -592 0
-293 -593 0
-294 -594 0
-295 -595 0
-296 -596 0
-297 -597 0
-298 -598 0
-299 -599 0
-300 -600 0
-241 -961 0
-242 -962 0
-243 -963 0
-244 -964 0
-245 -965 0
-246 -966 0
-247 -967 0
-248 -968 0
-249 -969 0
-250 -970 0
-251 -971 0
-252 -972 0
-253 -973 0
-254 -974 0
-255 -975 0
-256 -976 0
-257 -977 0
-258 -978 0
-259 -979 0
-260 -980 0
-261 -981 0
-262 -982 0
-263 -983 0
-264 -984 0
-265 -985 0
-266 -986 0
-267 -987 0
-268 -988 0
-269 -989 0
-270 -990 0
-271 -991 0
-272 -992 0
-273 -993 0
-274 -994 0
-275 -995 0
-276 -996 0
-277 -997 0
-278 -998 0
-279 -999 0
-280 -1000 0
-281 -1001 0
-282 -1002 0
-283 -1003 0
-284 -1004 0
-285 -1005 0
-286 -1006 0
-287 -1007 0
-288 -1008 0
-289 -1009 0
-290 -1010 0
-291 -1011 0
-292 -1012 0
-293 -1013 0
-294 -1014 0
-295 -1015 0
-296 -1016 0
-297 -1017 0
-298 -1018 0
-299 -1019 0
-300 -1020 0
-241 -1141 0
-242 -1142 0
-243 -1143 0
-244 -1144 0
-245 -1145 0
-246 -1146 0
-247 -1147 0
-248 -1148 0
-249 -1149 0
-250 -1150 0
-251 -1151 0
-252 -1152 0
-253 -1153 0
-254 -1154 0
-255 -1155 0
-256 -1156 0
-257 -1157 0
-258 -1158 0
-259 -1159 0
-260 -1160 0
-261 -1161 0
-262 -1162 0
-263 -1163 0
-264 -1164 0
-265 -1165 0
-266 -1166 0
-267 -1167 0
-268 -1168 0
-269 -1169 0
-270 -1170 0
-271 -1171 0
-272 -1172 0
-273 -1173 0
-274 -1174 0
-275 -1175 0
-276 -1176 0
-277 -1177 0
-278 -1178 0
-279 -1179 0
-280 -1180 0
-281 -1181 0
-282 -1182 0
-283 -1183 0
-284 -1184 0
-285 -1185 0
-286 -1186 0
-287 -1187 0
-288 -1188 0
-289 -1189 0
-290 -1190 0
-291 -1191 0
-292 -1192 0
-293 -1193 0
-294 -1194 0
-295 -1195 0
-296 -1196 0
-297 -1197 0
-298 -1198 0
-299 -1199 0
-300 -1200 0
-241 -1261 0
-242 -1262 0
-243 -1263 0
-244 -1264 0
-245 -1265 0
-246 -1266 0
-247 -1267 0
-248 -1268 0
-249 -1269 0
-250 -1270 0
-251 -1271 0
-252 -1272 0
-253 -1273 0
-254 -1274 0
-255 -1275 0
-256 -1276 0
-257 -1277 0
-258 -1278 0
-259 -1279 0
-260 -1280 0
-261 -1281 0
-262 -1282 0
-263 -1283 0
-264 -1284 0
-265 -1285 0
-266 -1286 0
-267 -1287 0
-268 -1288 0
-269 -1289 0
-270 -1290 0
-271 -1291 0
-272 -1292 0
-273 -1293 0
-274 -1294 0
-275 -1295 0
-276 -1296 0
-277 -1297 0
-278 -1298 0
-279 -1299 0
-280 -1300 0
-281 -1301 0
-282 -1302 0
-283 -1303 0
-284 -1304 0
-285 -1305 0
-286 -1306 0
-287 -1307 0
-288 -1308 0
-289 -1309 0
-290 -1310 0
-291 -1311 0
-292 -1312 0
-293 -1313 0
-294 -1314 0
-295 -1315 0
-296 -1316 0
-297 -1317 0
-298 -1318 0
-299 -1319 0
-300 -1320 0
-241 -1621 0
-242 -1622 0
-243 -1623 0
-244 -1624 0
-245 -1625 0
-246 -1626 0
-247 -1627 0
-248 -1628 0
-249 -1629 0
-250 -1630 0
-251 -1631 0
-252 -1632 0
-253 -1633 0
-254 -1634 0
-255 -1635 0
-256 -1636 0
-257 -1637 0
-258 -1638 0
-259 -1639 0
-260 -1640 0
-261 -1641 0
-262 -1642 0
-263 -1643 0
-264 -1644 0
-265 -1645 0
-266 -1646 0
-267 -1647 0
-268 -1648 0
-269 -1649 0
-270 -1650 0
-271 -1651 0
-272 -1652 0
-273 -1653 0
-274 -1654 0
-275 -1655 0
-276 -1656 0
-277 -1657 0
-278 -1658 0
-279 -1659 0
-280 -1660 0
-281 -1661 0
-282 -1662 0
-283 -1663 0
-284 -1664 0
-285 -1665 0
-286 -1666 0
-287 -1667 0
-288 -1668 0
-289 -1669 0
-290 -1670 0
-291 -1671 0
-292 -1672 0
-293 -1673 0
-294 -1674 0
-295 -1675 0
-296 -1676 0
-297 -1677 0
-298 -1678 0
-299 -1679 0
-300 -1680 0
-241 -2161 0
-242 -2162 0
-243 -2163 0
-244 -2164 0
-245 -2165 0
-246 -2166 0
-247 -2167 0
-248 -2168 0
-249 -2169 0
-250 -2170 0
-251 -2171 0
-252 -2172 0
-253 -2173 0
-254 -2174 0
-255 -2175 0
-256 -2176 0
-257 -2177 0
-258 -2178 0
-259 -2179 0
-260 -2180 0
-261 -2181 0
-262 -2182 0
-263 -2183 0
-264 -2184 0
-265 -2185 0
-266 -2186 0
-267 -2187 0
-268 -2188 0
-269 -2189 0
-270 -2190 0
-271 -2191 0
-272 -2192 0
-273 -2193 0
-274 -2194 0
-275 -2195 0
-276 -2196 0
-277 -2197 0
-278 -2198 0
-279 -2199 0
-280 -2200 0
-281 -2201 0
-282 -2202 0
-283 -2203 0
-284 -2204 0
-285 -2205 0
-286 -2206 0
-287 -2207 0
-288 -2208 0
-289 -2209 0
-290 -2210 0
-291 -2211 0
-292 -2212 0
-293 -2213 0
-294 -2214 0
-295 -2215 0
-296 -2216 0
-297 -2217 0
-298 -2218 0
-299 -2219 0
-300 -2220 0
-241 -2281 0
-242 -2282 0
-243 -2283 0
-244 -2284 0
-245 -2285 0
-246 -2286 0
-247 -2287 0
-248 -2288 0
-249 -2289 0
-250 -2290 0
-251 -2291 0
-252 -2292 0
-253 -2293 0
-254 -2294 0
-255 -2295 0
-256 -2296 0
-257 -2297 0
-258 -2298 0
-259 -2299 0
-260 -2300 0
-261 -2301 0
-262 -2302 0
-263 -2303 0
-264 -2304 0
-265 -2305 0
-266 -2306 0
-267 -2307 0
-268 -2308 0
-269 -2309 0
-270 -2310 0
-271 -2311 0
-272 -2312 0
-273 -2313 0
-274 -2314 0
-275 -2315 0
-276 -2316 0
-277 -2317 0
-278 -2318 0
-279 -2319 0
-280 -2320 0
-281 -2321 0
-282 -2322 0
-283 -2323 0
-284 -2324 0
-285 -2325 0
-286 -2326 0
-287 -2327 0
-288 -2328 0
-289 -2329 0
-290 -2330 0
-291 -2331 0
-292 -2332 0
-293 -2333 0
-294 -2334 0
-295 -2335 0
-296 -2336 0
-297 -2337 0
-298 -2338 0
-299 -2339 0
-300 -2340 0
-301 -901 0
-302 -902 0
-303 -903 0
-304 -904 0
-305 -905 0
-306 -906 0
-307 -907 0
-308 -908 0
-309 -909 0
-310 -910 0
-311 -911 0
-312 -912 0
-313 -913 0
-314 -914 0
-315 -915 0
-316 -916 0
-317 -917 0
-318 -918 0
-319 -919 0
-320 -920 0
-321 -921 0
-322 -922 0
-323 -923 0
-324 -924 0
-325 -925 0
-326 -926 0
-327 -927 0
-328 -928 0
-329 -929 0
-330 -930 0
-331 -931 0
-332 -932 0
-333 -933 0
-334 -934 0
-335 -935 0
-336 -936 0
-337 -937 0
-338 -938 0
-339 -939 0
-340 -940 0
-341 -941 0
-342 -942 0
-343 -943 0
-344 -944 0
-345 -945 0
-346 -946 0
-347 -947 0
-348 -948 0
-349 -949 0
-350 -950 0
-351 -951 0
-352 -952 0
-353 -953 0
-354 -954 0
-355 -955 0
-356 -956 0
-357 -957 0
-358 -958 0
-359 -959 0
-360 -960 0
-301 -1621 0
-302 -1622 0
-303 -1623 0
-304 -1624 0
-305 -1625 0
-306 -1626 0
-307 -1627 0
-308 -1628 0
-309 -1629 0
-310 -1630 0
-311 -1631 0
-312 -1632 0
-313 -1633 0
-314 -1634 0
-315 -1635 0
-316 -1636 0
-317 -1637 0
-318 -1638 0
-319 -1639 0
-320 -1640 0
-321 -1641 0
-322 -1642 0
-323 -1643 0
-324 -1644 0
-325 -1645 0
-326 -1646 0
-327 -1647 0
-328 -1648 0
-329 -1649 0
-330 -1650 0
-331 -1651 0
-332 -1652 0
-333 -1653 0
-334 -1654 0
-335 -1655 0
-336 -1656 0
-337 -1657 0
-338 -1658 0
-339 -1659 0
-340 -1660 0
-341 -1661 0
-342 -1662 0
-343 -1663 0
-344 -1664 0
-345 -1665 0
-346 -1666 0
-347 -1667 0
-348 -1668 0
-349 -1669 0
-350 -1670 0
-351 -1671 0
-352 -1672 0
-353 -1673 0
-354 -1674 0
-355 -1675 0
-356 -1676 0
-357 -1677 0
-358 -1678 0
-359 -1679 0
-360 -1680 0
-301 -2041 0
-302 -2042 0
-303 -2043 0
-304 -2044 0
-305 -2045 0
-306 -2046 0
-307 -2047 0
-308 -2048 0
-309 -2049 0
-310 -2050 0
-311 -2051 0
-312 -2052 0
-313 -2053 0
-314 -2054 0
-315 -2055 0
-316 -2056 0
-317 -2057 0
-318 -2058 0
-319 -2059 0
-320 -2060 0
-321 -2061 0
-322 -2062 0
-323 -2063 0
-324 -2064 0
-325 -2065 0
-326 -2066 0
-327 -2067 0
-328 -2068 0
-329 -2069 0
-330 -2070 0
-331 -2071 0
-332 -2072 0
-333 -2073 0
-334 -2074 0
-335 -2075 0
-336 -2076 0
-337 -2077 0
-338 -2078 0
-339 -2079 0
-340 -2080 0
-341 -2081 0
-342 -2082 0
-343 -2083 0
-344 -2084 0
-345 -2085 0
-346 -2086 0
-347 -2087 0
-348 -2088 0
-349 -2089 0
-350 -2090 0
-351 -2091 0
-352 -2092 0
-353 -2093 0
-354 -2094 0
-355 -2095 0
-356 -2096 0
-357 -2097 0
-358 -2098 0
-359 -2099 0
-360 -2100 0
-301 -2161 0
-302 -2162 0
-303 -2163 0
-304 -2164 0
-305 -2165 0
-306 -2166 0
-307 -2167 0
-308 -2168 0
-309 -2169 0
-310 -2170 0
-311 -2171 0
-312 -2172 0
-313 -2173 0
-314 -2174 0
-315 -2175 0
-316 -2176 0
-317 -2177 0
-318 -2178 0
-319 -2179 0
-320 -2180 0
-321 -2181 0
-322 -2182 0
-323 -2183 0
-324 -2184 0
-325 -2185 0
-326 -2186 0
-327 -2187 0
-328 -2188 0
-329 -2189 0
-330 -2190 0
-331 -2191 0
-332 -2192 0
-333 -2193 0
-334 -2194 0
-335 -2195 0
-336 -2196 0
-337 -2197 0
-338 -2198 0
-339 -2199 0
-340 -2200 0
-341 -2201 0
-342 -2202 0
-343 -2203 0
-344 -2204 0
-345 -2205 0
-346 -2206 0
-347 -2207 0
-348 -2208 0
-349 -2209 0
-350 -2210 0
-351 -2211 0
-352 -2212 0
-353 -2213 0
-354 -2214 0
-355 -2215 0
-356 -2216 0
-357 -2217 0
-358 -2218 0
-359 -2219 0
-360 -2220 0
-301 -2821 0
-302 -2822 0
-303 -2823 0
-304 -2824 0
-305 -2825 0
-306 -2826 0
-307 -2827 0
-308 -2828 0
-309 -2829 0
-310 -2830 0
-311 -2831 0
-312 -2832 0
-313 -2833 0
-314 -2834 0
-315 -2835 0
-316 -2836 0
-317 -2837 0
-318 -2838 0
-319 -2839 0
-320 -2840 0
-321 -2841 0
-322 -2842 0
-323 -2843 0
-324 -2844 0
-325 -2845 0
-326 -2846 0
-327 -2847 0
-328 -2848 0
-329 -2849 0
-330 -2850 0
-331 -2851 0
-332 -2852 0
-333 -2853 0
-334 -2854 0
-335 -2855 0
-336 -2856 0
-337 -2857 0
-338 -2858 0
-339 -2859 0
-340 -2860 0
-341 -2861 0
-342 -2862 0
-343 -2863 0
-344 -2864 0
-345 -2865 0
-346 -2866 0
-347 -2867 0
-348 -2868 0
-349 -2869 0
-350 -2870 0
-351 -2871 0
-352 -2872 0
-353 -2873 0
-354 -2874 0
-355 -2875 0
-356 -2876 0
-357 -2877 0
-358 -2878 0
-359 -2879 0
-360 -2880 0
-301 -3241 0
-302 -3242 0
-303 -3243 0
-304 -3244 0
-305 -3245 0
-306 -3246 0
-307 -3247 0
-308 -3248 0
-309 -3249 0
-310 -3250 0
-311 -3251 0
-312 -3252 0
-313 -3253 0
-314 -3254 0
-315 -3255 0
-316 -3256 0
-317 -3257 0
-318 -3258 0
-319 -3259 0
-320 -3260 0
-321 -3261 0
-322 -3262 0
-323 -3263 0
-324 -3264 0
-325 -3265 0
-326 -3266 0
-327 -3267 0
-328 -3268 0
-329 -3269 0
-330 -3270 0
-331 -3271 0
-332 -3272 0
-333 -3273 0
-334 -3274 0
-335 -3275 0
-336 -3276 0
-337 -3277 0
-338 -3278 0
-339 -3279 0
-340 -3280 0
-341 -3281 0
-342 -3282 0
-343 -3283 0
-344 -3284 0
-345 -3285 0
-346 -3286 0
-347 -3287 0
-348 -3288 0
-349 -3289 0
-350 -3290 0
-351 -3291 0
-352 -3292 0
-353 -3293 0
-354 -3294 0
-355 -3295 0
-356 -3296 0
-357 -3297 0
-358 -3298 0
-359 -3299 0
-360 -3300 0
-301 -3361 0
-302 -3362 0
-303 -3363 0
-304 -3364 0
-305 -3365 0
-306 -3366 0
-307 -3367 0
-308 -3368 0
-309 -3369 0
-310 -3370 0
-311 -3371 0
-312 -3372 0
-313 -3373 0
-314 -3374 0
-315 -3375 0
-316 -3376 0
-317 -3377 0
-318 -3378 0
-319 -3379 0
-320 -3380 0
-321 -3381 0
-322 -3382 0
-323 -3383 0
-324 -3384 0
-325 -3385 0
-326 -3386 0
-327 -3387 0
-328 -3388 0
-329 -3389 0
-330 -3390 0
-331 -3391 0
-332 -3392 0
-333 -3393 0
-334 -3394 0
-335 -3395 0
-336 -3396 0
-337 -3397 0
-338 -3398 0
-339 -3399 0
-340 -3400 0
-341 -3401 0
-342 -3402 0
-343 -3403 0
-344 -3404 0
-345 -3405 0
-346 -3406 0
-347 -3407 0
-348 -3408 0
-349 -3409 0
-350 -3410 0
-351 -3411 0
-352 -3412 0
-353 -3413 0
-354 -3414 0
-355 -3415 0
-356 -3416 0
-357 -3417 0
-358 -3418 0
-359 -3419 0
-360 -3420 0
-301 -3421 0
-302 -3422 0
-303 -3423 0
-304 -3424 0
-305 -3425 0
-306 -3426 0
-307 -3427 0
-308 -3428 0
-309 -3429 0
-310 -3430 0
-311 -3431 0
-312 -3432 0
-313 -3433 0
-314 -3434 0
-315 -3435 0
-316 -3436 0
-317 -3437 0
-318 -3438 0
-319 -3439 0
-320 -3440 0
-321 -3441 0
-322 -3442 0
-323 -3443 0
-324 -3444 0
-325 -3445 0
-326 -3446 0
-327 -3447 0
-328 -3448 0
-329 -3449 0
-330 -3450 0
-331 -3451 0
-332 -3452 0
-333 -3453 0
-334 -3454 0
-335 -3455 0
-336 -3456 0
-337 -3457 0
-338 -3458 0
-339 -3459 0
-340 -3460 0
-341 -3461 0
-342 -3462 0
-343 -3463 0
-344 -3464 0
-345 -3465 0
-346 -3466 0
-347 -3467 0
-348 -3468 0
-349 -3469 0
-350 -3470 0
-351 -3471 0
-352 -3472 0
-353 -3473 0
-354 -3474 0
-355 -3475 0
-356 -3476 0
-357 -3477 0
-358 -3478 0
-359 -3479 0
-360 -3480 0
-301 -4261 0
-302 -4262 0
-303 -4263 0
-304 -4264 0
-305 -4265 0
-306 -4266 0
-307 -4267 0
-308 -4268 0
-309 -4269 0
-310 -4270 0
-311 -4271 0
-312 -4272 0
-313 -4273 0
-314 -4274 0
-315 -4275 0
-316 -4276 0
-317 -4277 0
-318 -4278 0
-319 -4279 0
-320 -4280 0
-321 -4281 0
-322 -4282 0
-323 -4283 0
-324 -4284 0
-325 -4285 0
-326 -4286 0
-327 -4287 0
-328 -4288 0
-329 -4289 0
-330 -4290 0
-331 -4291 0
-332 -4292 0
-333 -4293 0
-334 -4294 0
-335 -4295 0
-336 -4296 0
-337 -4297 0
-338 -4298 0
-339 -4299 0
-340 -4300 0
-341 -4301 0
-342 -4302 0
-343 -4303 0
-344 -4304 0
-345 -4305 0
-346 -4306 0
-347 -4307 0
-348 -4308 0
-349 -4309 0
-350 -4310 0
-351 -4311 0
-352 -4312 0
-353 -4313 0
-354 -4314 0
-355 -4315 0
-356 -4316 0
-357 -4317 0
-358 -4318 0
-359 -4319 0
-360 -4320 0
-361 -181 0
-362 -182 0
-363 -183 0
-364 -184 0
-365 -185 0
-366 -186 0
-367 -187 0
-368 -188 0
-369 -189 0
-370 -190 0
-371 -191 0
-372 -192 0
-373 -193 0
-374 -194 0
-375 -195 0
-376 -196 0
-377 -197 0
-378 -198 0
-379 -199 0
-380 -200 0
-381 -201 0
-382 -202 0
-383 -203 0
-384 -204 0
-385 -205 0
-386 -206 0
-387 -207 0
-388 -208 0
-389 -209 0
-390 -210 0
-391 -211 0
-392 -212 0
-393 -213 0
-394 -214 0
-395 -215 0
-396 -216 0
-397 -217 0
-398 -218 0
-399 -219 0
-400 -220 0
-401 -221 0
-402 -222 0
-403 -223 0
-404 -224 0
-405 -225 0
-406 -226 0
-407 -227 0
-408 -228 0
-409 -229 0
-410 -230 0
-411 -231 0
-412 -232 0
-413 -233 0
-414 -234 0
-415 -235 0
-416 -236 0
-417 -237 0
-418 -238 0
-419 -239 0
-420 -240 0
-361 -481 0
-362 -482 0
-363 -483 0
-364 -484 0
-365 -485 0
-366 -486 0
-367 -487 0
-368 -488 0
-369 -489 0
-370 -490 0
-371 -491 0
-372 -492 0
-373 -493 0
-374 -494 0
-375 -495 0
-376 -496 0
-377 -497 0
-378 -498 0
-379 -499 0
-380 -500 0
-381 -501 0
-382 -502 0
-383 -503 0
-384 -504 0
-385 -505 0
-386 -506 0
-387 -507 0
-388 -508 0
-389 -509 0
-390 -510 0
-391 -511 0
-392 -512 0
-393 -513 0
-394 -514 0
-395 -515 0
-396 -516 0
-397 -517 0
-398 -518 0
-399 -519 0
-400 -520 0
-401 -521 0
-402 -522 0
-403 -523 0
-404 -524 0
-405 -525 0
-406 -526 0
-407 -527 0
-408 -528 0
-409 -529 0
-410 -530 0
-411 -531 0
-412 -532 0
-413 -533 0
-414 -534 0
-415 -535 0
-416 -536 0
-417 -537 0
-418 -538 0
-419 -539 0
-420 -540 0
-361 -841 0
-362 -842 0
-363 -843 0
-364 -844 0
-365 -845 0
-366 -846 0
-367 -847 0
-368 -848 0
-369 -849 0
-370 -850 0
-371 -851 0
-372 -852 0
-373 -853 0
-374 -854 0
-375 -855 0
-376 -856 0
-377 -857 0
-378 -858 0
-379 -859 0
-380 -860 0
-381 -861 0
-382 -862 0
-383 -863 0
-384 -864 0
-385 -865 0
-386 -866 0
-387 -867 0
-388 -868 0
-389 -869 0
-390 -870 0
-391 -871 0
-392 -872 0
-393 -873 0
-394 -874 0
-395 -875 0
-396 -876 0
-397 -877 0
-398 -878 0
-399 -879 0
-400 -880 0
-401 -881 0
-402 -882 0
-403 -883 0
-404 -884 0
-405 -885 0
-406 -886 0
-407 -887 0
-408 -888 0
-409 -889 0
-410 -890 0
-411 -891 0
-412 -892 0
-413 -893 0
-414 -894 0
-415 -895 0
-416 -896 0
-417 -897 0
-418 -898 0
-419 -899 0
-420 -900 0
-361 -1081 0
-362 -1082 0
-363 -1083 0
-364 -1084 0
-365 -1085 0
-366 -1086 0
-367 -1087 0
-368 -1088 0
-369 -1089 0
-370 -1090 0
-371 -1091 0
-372 -1092 0
-373 -1093 0
-374 -1094 0
-375 -1095 0
-376 -1096 0
-377 -1097 0
-378 -1098 0
-379 -1099 0
-380 -1100 0
-381 -1101 0
-382 -1102 0
-383 -1103 0
-384 -1104 0
-385 -1105 0
-386 -1106 0
-387 -1107 0
-388 -1108 0
-389 -1109 0
-390 -1110 0
-391 -1111 0
-392 -1112 0
-393 -1113 0
-394 -1114 0
-395 -1115 0
-396 -1116 0
-397 -1117 0
-398 -1118 0
-399 -1119 0
-400 -1120 0
-401 -1121 0
-402 -1122 0
-403 -1123 0
-404 -1124 0
-405 -1125 0
-406 -1126 0
-407 -1127 0
-408 -1128 0
-409 -1129 0
-410 -1130 0
-411 -1131 0
-412 -1132 0
-413 -1133 0
-414 -1134 0
-415 -1135 0
-416 -1136 0
-417 -1137 0
-418 -1138 0
-419 -1139 0
-420 -1140 0
-361 -1981 0
-362 -1982 0
-363 -1983 0
-364 -1984 0
-365 -1985 0
-366 -1986 0
-367 -1987 0
-368 -1988 0
-369 -1989 0
-370 -1990 0
-371 -1991 0
-372 -1992 0
-373 -1993 0
-374 -1994 0
-375 -1995 0
-376 -1996 0
-377 -1997 0
-378 -1998 0
-379 -1999 0
-380 -2000 0
-381 -2001 0
-382 -2002 0
-383 -2003 0
-384 -2004 0
-385 -2005 0
-386 -2006 0
-387 -2007 0
-388 -2008 0
-389 -2009 0
-390 -2010 0
-391 -2011 0
-392 -2012 0
-393 -2013 0
-394 -2014 0
-395 -2015 0
-396 -2016 0
-397 -2017 0
-398 -2018 0
-399 -2019 0
-400 -2020 0
-401 -2021 0
-402 -2022 0
-403 -2023 0
-404 -2024 0
-405 -2025 0
-406 -2026 0
-407 -2027 0
-408 -2028 0
-409 -2029 0
-410 -2030 0
-411 -2031 0
-412 -2032 0
-413 -2033 0
-414 -2034 0
-415 -2035 0
-416 -2036 0
-417 -2037 0
-418 -2038 0
-419 -2039 0
-420 -2040 0
-361 -2221 0
-362 -2222 0
-363 -2223 0
-364 -2224 0
-365 -2225 0
-366 -2226 0
-367 -2227 0
-368 -2228 0
-369 -2229 0
-370 -2230 0
-371 -2231 0
-372 -2232 0
-373 -2233 0
-374 -2234 0
-375 -2235 0
-376 -2236 0
-377 -2237 0
-378 -2238 0
-379 -2239 0
-380 -2240 0
-381 -2241 0
-382 -2242 0
-383 -2243 0
-384 -2244 0
-385 -2245 0
-386 -2246 0
-387 -2247 0
-388 -2248 0
-389 -2249 0
-390 -2250 0
-391 -2251 0
-392 -2252 0
-393 -2253 0
-394 -2254 0
-395 -2255 0
-396 -2256 0
-397 -2257 0
-398 -2258 0
-399 -2259 0
-400 -2260 0
-401 -2261 0
-402 -2262 0
-403 -2263 0
-404 -2264 0
-405 -2265 0
-406 -2266 0
-407 -2267 0
-408 -2268 0
-409 -2269 0
-410 -2270 0
-411 -2271 0
-412 -2272 0
-413 -2273 0
-414 -2274 0
-415 -2275 0
-416 -2276 0
-417 -2277 0
-418 -2278 0
-419 -2279 0
-420 -2280 0
-361 -2761 0
-362 -2762 0
-363 -2763 0
-364 -2764 0
-365 -2765 0
-366 -2766 0
-367 -2767 0
-368 -2768 0
-369 -2769 0
-370 -2770 0
-371 -2771 0
-372 -2772 0
-373 -2773 0
-374 -2774 0
-375 -2775 0
-376 -2776 0
-377 -2777 0
-378 -2778 0
-379 -2779 0
-380 -2780 0
-381 -2781 0
-382 -2782 0
-383 -2783 0
-384 -2784 0
-385 -2785 0
-386 -2786 0
-387 -2787 0
-388 -2788 0
-389 -2789 0
-390 -2790 0
-391 -2791 0
-392 -2792 0
-393 -2793 0
-394 -2794 0
-395 -2795 0
-396 -2796 0
-397 -2797 0
-398 -2798 0
-399 -2799 0
-400 -2800 0
-401 -2801 0
-402 -2802 0
-403 -2803 0
-404 -2804 0
-405 -2805 0
-406 -2806 0
-407 -2807 0
-408 -2808 0
-409 -2809 0
-410 -2810 0
-411 -2811 0
-412 -2812 0
-413 -2813 0
-414 -2814 0
-415 -2815 0
-416 -2816 0
-417 -2817 0
-418 -2818 0
-419 -2819 0
-420 -2820 0
-361 -2941 0
-362 -2942 0
-363 -2943 0
-364 -2944 0
-365 -2945 0
-366 -2946 0
-367 -2947 0
-368 -2948 0
-369 -2949 0
-370 -2950 0
-371 -2951 0
-372 -2952 0
-373 -2953 0
-374 -2954 0
-375 -2955 0
-376 -2956 0
-377 -2957 0
-378 -2958 0
-379 -2959 0
-380 -2960 0
-381 -2961 0
-382 -2962 0
-383 -2963 0
-384 -2964 0
-385 -2965 0
-386 -2966 0
-387 -2967 0
-388 -2968 0
-389 -2969 0
-390 -2970 0
-391 -2971 0
-392 -2972 0
-393 -2973 0
-394 -2974 0
-395 -2975 0
-396 -2976 0
-397 -2977 0
-398 -2978 0
-399 -2979 0
-400 -2980 0
-401 -2981 0
-402 -2982 0
-403 -2983 0
-404 -2984 0
-405 -2985 0
-406 -2986 0
-407 -2987 0
-408 -2988 0
-409 -2989 0
-410 -2990 0
-411 -2991 0
-412 -2992 0
-413 -2993 0
-414 -2994 0
-415 -2995 0
-416 -2996 0
-417 -2997 0
-418 -2998 0
-419 -2999 0
-420 -3000 0
-361 -3901 0
-362 -3902 0
-363 -3903 0
-364 -3904 0
-365 -3905 0
-366 -3906 0
-367 -3907 0
-368 -3908 0
-369 -3909 0
-370 -3910 0
-371 -3911 0
-372 -3912 0
-373 -3913 0
-374 -3914 0
-375 -3915 0
-376 -3916 0
-377 -3917 0
-378 -3918 0
-379 -3919 0
-380 -3920 0
-381 -3921 0
-382 -3922 0
-383 -3923 0
-384 -3924 0
-385 -3925 0
-386 -3926 0
-387 -3927 0
-388 -3928 0
-389 -3929 0
-390 -3930 0
-391 -3931 0
-392 -3932 0
-393 -3933 0
-394 -3934 0
-395 -3935 0
-396 -3936 0
-397 -3937 0
-398 -3938 0
-399 -3939 0
-400 -3940 0
-401 -3941 0
-402 -3942 0
-403 -3943 0
-404 -3944 0
-405 -3945 0
-406 -3946 0
-407 -3947 0
-408 -3948 0
-409 -3949 0
-410 -3950 0
-411 -3951 0
-412 -3952 0
-413 -3953 0
-414 -3954 0
-415 -3955 0
-416 -3956 0
-417 -3957 0
-418 -3958 0
-419 -3959 0
-420 -3960 0
-361 -4021 0
-362 -4022 0
-363 -4023 0
-364 -4024 0
-365 -4025 0
-366 -4026 0
-367 -4027 0
-368 -4028 0
-369 -4029 0
-370 -4030 0
-371 -4031 0
-372 -4032 0
-373 -4033 0
-374 -4034 0
-375 -4035 0
-376 -4036 0
-377 -4037 0
-378 -4038 0
-379 -4039 0
-380 -4040 0
-381 -4041 0
-382 -4042 0
-383 -4043 0
-384 -4044 0
-385 -4045 0
-386 -4046 0
-387 -4047 0
-388 -4048 0
-389 -4049 0
-390 -4050 0
-391 -4051 0
-392 -4052 0
-393 -4053 0
-394 -4054 0
-395 -4055 0
-396 -4056 0
-397 -4057 0
-398 -4058 0
-399 -4059 0
-400 -4060 0
-401 -4061 0
-402 -4062 0
-403 -4063 0
-404 -4064 0
-405 -4065 0
-406 -4066 0
-407 -4067 0
-408 -4068 0
-409 -4069 0
-410 -4070 0
-411 -4071 0
-412 -4072 0
-413 -4073 0
-414 -4074 0
-415 -4075 0
-416 -4076 0
-417 -4077 0
-418 -4078 0
-419 -4079 0
-420 -4080 0
-361 -4261 0
-362 -4262 0
-363 -4263 0
-364 -4264 0
-365 -4265 0
-366 -4266 0
-367 -4267 0
-368 -4268 0
-369 -4269 0
-370 -4270 0
-371 -4271 0
-372 -4272 0
-373 -4273 0
-374 -4274 0
-375 -4275 0
-376 -4276 0
-377 -4277 0
-378 -4278 0
-379 -4279 0
-380 -4280 0
-381 -4281 0
-382 -4282 0
-383 -4283 0
-384 -4284 0
-385 -4285 0
-386 -4286 0
-387 -4287 0
-388 -4288 0
-389 -4289 0
-390 -4290 0
-391 -4291 0
-392 -4292 0
-393 -4293 0
-394 -4294 0
-395 -4295 0
-396 -4296 0
-397 -4297 0
-398 -4298 0
-399 -4299 0
-400 -4300 0
-401 -4301 0
-402 -4302 0
-403 -4303 0
-404 -4304 0
-405 -4305 0
-406 -4306 0
-407 -4307 0
-408 -4308 0
-409 -4309 0
-410 -4310 0
-411 -4311 0
-412 -4312 0
-413 -4313 0
-414 -4314 0
-415 -4315 0
-416 -4316 0
-417 -4317 0
-418 -4318 0
-419 -4319 0
-420 -4320 0
-361 -4681 0
-362 -4682 0
-363 -4683 0
-364 -4684 0
-365 -4685 0
-366 -4686 0
-367 -4687 0
-368 -4688 0
-369 -4689 0
-370 -4690 0
-371 -4691 0
-372 -4692 0
-373 -4693 0
-374 -4694 0
-375 -4695 0
-376 -4696 0
-377 -4697 0
-378 -4698 0
-379 -4699 0
-380 -4700 0
-381 -4701 0
-382 -4702 0
-383 -4703 0
-384 -4704 0
-385 -4705 0
-386 -4706 0
-387 -4707 0
-388 -4708 0
-389 -4709 0
-390 -4710 0
-391 -4711 0
-392 -4712 0
-393 -4713 0
-394 -4714 0
-395 -4715 0
-396 -4716 0
-397 -4717 0
-398 -4718 0
-399 -4719 0
-400 -4720 0
-401 -4721 0
-402 -4722 0
-403 -4723 0
-404 -4724 0
-405 -4725 0
-406 -4726 0
-407 -4727 0
-408 -4728 0
-409 -4729 0
-410 -4730 0
-411 -4731 0
-412 -4732 0
-413 -4733 0
-414 -4734 0
-415 -4735 0
-416 -4736 0
-417 -4737 0
-418 -4738 0
-419 -4739 0
-420 -4740 0
-421 -3301 0
-422 -3302 0
-423 -3303 0
-424 -3304 0
-425 -3305 0
-426 -3306 0
-427 -3307 0
-428 -3308 0
-429 -3309 0
-430 -3310 0
-431 -3311 0
-432 -3312 0
-433 -3313 0
-434 -3314 0
-435 -3315 0
-436 -3316 0
-437 -3317 0
-438 -3318 0
-439 -3319 0
-440 -3320 0
-441 -3321 0
-442 -3322 0
-443 -3323 0
-444 -3324 0
-445 -3325 0
-446 -3326 0
-447 -3327 0
-448 -3328 0
-449 -3329 0
-450 -3330 0
-451 -3331 0
-452 -3332 0
-453 -3333 0
-454 -3334 0
-455 -3335 0
-456 -3336 0
-457 -3337 0
-458 -3338 0
-459 -3339 0
-460 -3340 0
-461 -3341 0
-462 -3342 0
-463 -3343 0
-464 -3344 0
-465 -3345 0
-466 -3346 0
-467 -3347 0
-468 -3348 0
-469 -3349 0
-470 -3350 0
-471 -3351 0
-472 -3352 0
-473 -3353 0
-474 -3354 0
-475 -3355 0
-476 -3356 0
-477 -3357 0
-478 -3358 0
-479 -3359 0
-480 -3360 0
-421 -4261 0
-422 -4262 0
-423 -4263 0
-424 -4264 0
-425 -4265 0
-426 -4266 0
-427 -4267 0
-428 -4268 0
-429 -4269 0
-430 -4270 0
-431 -4271 0
-432 -4272 0
-433 -4273 0
-434 -4274 0
-435 -4275 0
-436 -4276 0
-437 -4277 0
-438 -4278 0
-439 -4279 0
-440 -4280 0
-441 -4281 0
-442 -4282 0
-443 -4283 0
-444 -4284 0
-445 -4285 0
-446 -4286 0
-447 -4287 0
-448 -4288 0
-449 -4289 0
-450 -4290 0
-451 -4291 0
-452 -4292 0
-453 -4293 0
-454 -4294 0
-455 -4295 0
-456 -4296 0
-457 -4297 0
-458 -4298 0
-459 -4299 0
-460 -4300 0
-461 -4301 0
-462 -4302 0
-463 -4303 0
-464 -4304 0
-465 -4305 0
-466 -4306 0
-467 -4307 0
-468 -4308 0
-469 -4309 0
-470 -4310 0
-471 -4311 0
-472 -4312 0
-473 -4313 0
-474 -4314 0
-475 -4315 0
-476 -4316 0
-477 -4317 0
-478 -4318 0
-479 -4319 0
-480 -4320 0
-481 -181 0
-482 -182 0
-483 -183 0
-484 -184 0
-485 -185 0
-486 -186 0
-487 -187 0
-488 -188 0
-489 -189 0
-490 -190 0
-491 -191 0
-492 -192 0
-493 -193 0
-494 -194 0
-495 -195 0
-496 -196 0
-497 -197 0
-498 -198 0
-499 -199 0
-500 -200 0
-501 -201 0
-502 -202 0
-503 -203 0
-504 -204 0
-505 -205 0
-506 -206 0
-507 -207 0
-508 -208 0
-509 -209 0
-510 -210 0
-511 -211 0
-512 -212 0
-513 -213 0
-514 -214 0
-515 -215 0
-516 -216 0
-517 -217 0
-518 -218 0
-519 -219 0
-520 -220 0
-521 -221 0
-522 -222 0
-523 -223 0
-524 -224 0
-525 -225 0
-526 -226 0
-527 -227 0
-528 -228 0
-529 -229 0
-530 -230 0
-531 -231 0
-532 -232 0
-533 -233 0
-534 -234 0
-535 -235 0
-536 -236 0
-537 -237 0
-538 -238 0
-539 -239 0
-540 -240 0
-481 -361 0
-482 -362 0
-483 -363 0
-484 -364 0
-485 -365 0
-486 -366 0
-487 -367 0
-488 -368 0
-489 -369 0
-490 -370 0
-491 -371 0
-492 -372 0
-493 -373 0
-494 -374 0
-495 -375 0
-496 -376 0
-497 -377 0
-498 -378 0
-499 -379 0
-500 -380 0
-501 -381 0
-502 -382 0
-503 -383 0
-504 -384 0
-505 -385 0
-506 -386 0
-507 -387 0
-508 -388 0
-509 -389 0
-510 -390 0
-511 -391 0
-512 -392 0
-513 -393 0
-514 -394 0
-515 -395 0
-516 -396 0
-517 -397 0
-518 -398 0
-519 -399 0
-520 -400 0
-521 -401 0
-522 -402 0
-523 -403 0
-524 -404 0
-525 -405 0
-526 -406 0
-527 -407 0
-528 -408 0
-529 -409 0
-530 -410 0
-531 -411 0
-532 -412 0
-533 -413 0
-534 -414 0
-535 -415 0
-536 -416 0
-537 -417 0
-538 -418 0
-539 -419 0
-540 -420 0
-481 -841 0
-482 -842 0
-483 -843 0
-484 -844 0
-485 -845 0
-486 -846 0
-487 -847 0
-488 -848 0
-489 -849 0
-490 -850 0
-491 -851 0
-492 -852 0
-493 -853 0
-494 -854 0
-495 -855 0
-496 -856 0
-497 -857 0
-498 -858 0
-499 -859 0
-500 -860 0
-501 -861 0
-502 -862 0
-503 -863 0
-504 -864 0
-505 -865 0
-506 -866 0
-507 -867 0
-508 -868 0
-509 -869 0
-510 -870 0
-511 -871 0
-512 -872 0
-513 -873 0
-514 -874 0
-515 -875 0
-516 -876 0
-517 -877 0
-518 -878 0
-519 -879 0
-520 -880 0
-521 -881 0
-522 -882 0
-523 -883 0
-524 -884 0
-525 -885 0
-526 -886 0
-527 -887 0
-528 -888 0
-529 -889 0
-530 -890 0
-531 -891 0
-532 -892 0
-533 -893 0
-534 -894 0
-535 -895 0
-536 -896 0
-537 -897 0
-538 -898 0
-539 -899 0
-540 -900 0
-481 -1081 0
-482 -1082 0
-483 -1083 0
-484 -1084 0
-485 -1085 0
-486 -1086 0
-487 -1087 0
-488 -1088 0
-489 -1089 0
-490 -1090 0
-491 -1091 0
-492 -1092 0
-493 -1093 0
-494 -1094 0
-495 -1095 0
-496 -1096 0
-497 -1097 0
-498 -1098 0
-499 -1099 0
-500 -1100 0
-501 -1101 0
-502 -1102 0
-503 -1103 0
-504 -1104 0
-505 -1105 0
-506 -1106 0
-507 -1107 0
-508 -1108 0
-509 -1109 0
-510 -1110 0
-511 -1111 0
-512 -1112 0
-513 -1113 0
-514 -1114 0
-515 -1115 0
-516 -1116 0
-517 -1117 0
-518 -1118 0
-519 -1119 0
-520 -1120 0
-521 -1121 0
-522 -1122 0
-523 -1123 0
-524 -1124 0
-525 -1125 0
-526 -1126 0
-527 -1127 0
-528 -1128 0
-529 -1129 0
-530 -1130 0
-531 -1131 0
-532 -1132 0
-533 -1133 0
-534 -1134 0
-535 -1135 0
-536 -1136 0
-537 -1137 0
-538 -1138 0
-539 -1139 0
-540 -1140 0
-481 -1621 0
-482 -1622 0
-483 -1623 0
-484 -1624 0
-485 -1625 0
-486 -1626 0
-487 -1627 0
-488 -1628 0
-489 -1629 0
-490 -1630 0
-491 -1631 0
-492 -1632 0
-493 -1633 0
-494 -1634 0
-495 -1635 0
-496 -1636 0
-497 -1637 0
-498 -1638 0
-499 -1639 0
-500 -1640 0
-501 -1641 0
-502 -1642 0
-503 -1643 0
-504 -1644 0
-505 -1645 0
-506 -1646 0
-507 -1647 0
-508 -1648 0
-509 -1649 0
-510 -1650 0
-511 -1651 0
-512 -1652 0
-513 -1653 0
-514 -1654 0
-515 -1655 0
-516 -1656 0
-517 -1657 0
-518 -1658 0
-519 -1659 0
-520 -1660 0
-521 -1661 0
-522 -1662 0
-523 -1663 0
-524 -1664 0
-525 -1665 0
-526 -1666 0
-527 -1667 0
-528 -1668 0
-529 -1669 0
-530 -1670 0
-531 -1671 0
-532 -1672 0
-533 -1673 0
-534 -1674 0
-535 -1675 0
-536 -1676 0
-537 -1677 0
-538 -1678 0
-539 -1679 0
-540 -1680 0
-481 -1981 0
-482 -1982 0
-483 -1983 0
-484 -1984 0
-485 -1985 0
-486 -1986 0
-487 -1987 0
-488 -1988 0
-489 -1989 0
-490 -1990 0
-491 -1991 0
-492 -1992 0
-493 -1993 0
-494 -1994 0
-495 -1995 0
-496 -1996 0
-497 -1997 0
-498 -1998 0
-499 -1999 0
-500 -2000 0
-501 -2001 0
-502 -2002 0
-503 -2003 0
-504 -2004 0
-505 -2005 0
-506 -2006 0
-507 -2007 0
-508 -2008 0
-509 -2009 0
-510 -2010 0
-511 -2011 0
-512 -2012 0
-513 -2013 0
-514 -2014 0
-515 -2015 0
-516 -2016 0
-517 -2017 0
-518 -2018 0
-519 -2019 0
-520 -2020 0
-521 -2021 0
-522 -2022 0
-523 -2023 0
-524 -2024 0
-525 -2025 0
-526 -2026 0
-527 -2027 0
-528 -2028 0
-529 -2029 0
-530 -2030 0
-531 -2031 0
-532 -2032 0
-533 -2033 0
-534 -2034 0
-535 -2035 0
-536 -2036 0
-537 -2037 0
-538 -2038 0
-539 -2039 0
-540 -2040 0
-481 -2041 0
-482 -2042 0
-483 -2043 0
-484 -2044 0
-485 -2045 0
-486 -2046 0
-487 -2047 0
-488 -2048 0
-489 -2049 0
-490 -2050 0
-491 -2051 0
-492 -2052 0
-493 -2053 0
-494 -2054 0
-495 -2055 0
-496 -2056 0
-497 -2057 0
-498 -2058 0
-499 -2059 0
-500 -2060 0
-501 -2061 0
-502 -2062 0
-503 -2063 0
-504 -2064 0
-505 -2065 0
-506 -2066 0
-507 -2067 0
-508 -2068 0
-509 -2069 0
-510 -2070 0
-511 -2071 0
-512 -2072 0
-513 -2073 0
-514 -2074 0
-515 -2075 0
-516 -2076 0
-517 -2077 0
-518 -2078 0
-519 -2079 0
-520 -2080 0
-521 -2081 0
-522 -2082 0
-523 -2083 0
-524 -2084 0
-525 -2085 0
-526 -2086 0
-527 -2087 0
-528 -2088 0
-529 -2089 0
-530 -2090 0
-531 -2091 0
-532 -2092 0
-533 -2093 0
-534 -2094 0
-535 -2095 0
-536 -2096 0
-537 -2097 0
-538 -2098 0
-539 -2099 0
-540 -2100 0
-481 -2161 0
-482 -2162 0
-483 -2163 0
-484 -2164 0
-485 -2165 0
-486 -2166 0
-487 -2167 0
-488 -2168 0
-489 -2169 0
-490 -2170 0
-491 -2171 0
-492 -2172 0
-493 -2173 0
-494 -2174 0
-495 -2175 0
-496 -2176 0
-497 -2177 0
-498 -2178 0
-499 -2179 0
-500 -2180 0
-501 -2181 0
-502 -2182 0
-503 -2183 0
-504 -2184 0
-505 -2185 0
-506 -2186 0
-507 -2187 0
-508 -2188 0
-509 -2189 0
-510 -2190 0
-511 -2191 0
-512 -2192 0
-513 -2193 0
-514 -2194 0
-515 -2195 0
-516 -2196 0
-517 -2197 0
-518 -2198 0
-519 -2199 0
-520 -2200 0
-521 -2201 0
-522 -2202 0
-523 -2203 0
-524 -2204 0
-525 -2205 0
-526 -2206 0
-527 -2207 0
-528 -2208 0
-529 -2209 0
-530 -2210 0
-531 -2211 0
-532 -2212 0
-533 -2213 0
-534 -2214 0
-535 -2215 0
-536 -2216 0
-537 -2217 0
-538 -2218 0
-539 -2219 0
-540 -2220 0
-481 -2221 0
-482 -2222 0
-483 -2223 0
-484 -2224 0
-485 -2225 0
-486 -2226 0
-487 -2227 0
-488 -2228 0
-489 -2229 0
-490 -2230 0
-491 -2231 0
-492 -2232 0
-493 -2233 0
-494 -2234 0
-495 -2235 0
-496 -2236 0
-497 -2237 0
-498 -2238 0
-499 -2239 0
-500 -2240 0
-501 -2241 0
-502 -2242 0
-503 -2243 0
-504 -2244 0
-505 -2245 0
-506 -2246 0
-507 -2247 0
-508 -2248 0
-509 -2249 0
-510 -2250 0
-511 -2251 0
-512 -2252 0
-513 -2253 0
-514 -2254 0
-515 -2255 0
-516 -2256 0
-517 -2257 0
-518 -2258 0
-519 -2259 0
-520 -2260 0
-521 -2261 0
-522 -2262 0
-523 -2263 0
-524 -2264 0
-525 -2265 0
-526 -2266 0
-527 -2267 0
-528 -2268 0
-529 -2269 0
-530 -2270 0
-531 -2271 0
-532 -2272 0
-533 -2273 0
-534 -2274 0
-535 -2275 0
-536 -2276 0
-537 -2277 0
-538 -2278 0
-539 -2279 0
-540 -2280 0
-481 -2761 0
-482 -2762 0
-483 -2763 0
-484 -2764 0
-485 -2765 0
-486 -2766 0
-487 -2767 0
-488 -2768 0
-489 -2769 0
-490 -2770 0
-491 -2771 0
-492 -2772 0
-493 -2773 0
-494 -2774 0
-495 -2775 0
-496 -2776 0
-497 -2777 0
-498 -2778 0
-499 -2779 0
-500 -2780 0
-501 -2781 0
-502 -2782 0
-503 -2783 0
-504 -2784 0
-505 -2785 0
-506 -2786 0
-507 -2787 0
-508 -2788 0
-509 -2789 0
-510 -2790 0
-511 -2791 0
-512 -2792 0
-513 -2793 0
-514 -2794 0
-515 -2795 0
-516 -2796 0
-517 -2797 0
-518 -2798 0
-519 -2799 0
-520 -2800 0
-521 -2801 0
-522 -2802 0
-523 -2803 0
-524 -2804 0
-525 -2805 0
-526 -2806 0
-527 -2807 0
-528 -2808 0
-529 -2809 0
-530 -2810 0
-531 -2811 0
-532 -2812 0
-533 -2813 0
-534 -2814 0
-535 -2815 0
-536 -2816 0
-537 -2817 0
-538 -2818 0
-539 -2819 0
-540 -2820 0
-481 -2941 0
-482 -2942 0
-483 -2943 0
-484 -2944 0
-485 -2945 0
-486 -2946 0
-487 -2947 0
-488 -2948 0
-489 -2949 0
-490 -2950 0
-491 -2951 0
-492 -2952 0
-493 -2953 0
-494 -2954 0
-495 -2955 0
-496 -2956 0
-497 -2957 0
-498 -2958 0
-499 -2959 0
-500 -2960 0
-501 -2961 0
-502 -2962 0
-503 -2963 0
-504 -2964 0
-505 -2965 0
-506 -2966 0
-507 -2967 0
-508 -2968 0
-509 -2969 0
-510 -2970 0
-511 -2971 0
-512 -2972 0
-513 -2973 0
-514 -2974 0
-515 -2975 0
-516 -2976 0
-517 -2977 0
-518 -2978 0
-519 -2979 0
-520 -2980 0
-521 -2981 0
-522 -2982 0
-523 -2983 0
-524 -2984 0
-525 -2985 0
-526 -2986 0
-527 -2987 0
-528 -2988 0
-529 -2989 0
-530 -2990 0
-531 -2991 0
-532 -2992 0
-533 -2993 0
-534 -2994 0
-535 -2995 0
-536 -2996 0
-537 -2997 0
-538 -2998 0
-539 -2999 0
-540 -3000 0
-481 -3901 0
-482 -3902 0
-483 -3903 0
-484 -3904 0
-485 -3905 0
-486 -3906 0
-487 -3907 0
-488 -3908 0
-489 -3909 0
-490 -3910 0
-491 -3911 0
-492 -3912 0
-493 -3913 0
-494 -3914 0
-495 -3915 0
-496 -3916 0
-497 -3917 0
-498 -3918 0
-499 -3919 0
-500 -3920 0
-501 -3921 0
-502 -3922 0
-503 -3923 0
-504 -3924 0
-505 -3925 0
-506 -3926 0
-507 -3927 0
-508 -3928 0
-509 -3929 0
-510 -3930 0
-511 -3931 0
-512 -3932 0
-513 -3933 0
-514 -3934 0
-515 -3935 0
-516 -3936 0
-517 -3937 0
-518 -3938 0
-519 -3939 0
-520 -3940 0
-521 -3941 0
-522 -3942 0
-523 -3943 0
-524 -3944 0
-525 -3945 0
-526 -3946 0
-527 -3947 0
-528 -3948 0
-529 -3949 0
-530 -3950 0
-531 -3951 0
-532 -3952 0
-533 -3953 0
-534 -3954 0
-535 -3955 0
-536 -3956 0
-537 -3957 0
-538 -3958 0
-539 -3959 0
-540 -3960 0
-481 -4021 0
-482 -4022 0
-483 -4023 0
-484 -4024 0
-485 -4025 0
-486 -4026 0
-487 -4027 0
-488 -4028 0
-489 -4029 0
-490 -4030 0
-491 -4031 0
-492 -4032 0
-493 -4033 0
-494 -4034 0
-495 -4035 0
-496 -4036 0
-497 -4037 0
-498 -4038 0
-499 -4039 0
-500 -4040 0
-501 -4041 0
-502 -4042 0
-503 -4043 0
-504 -4044 0
-505 -4045 0
-506 -4046 0
-507 -4047 0
-508 -4048 0
-509 -4049 0
-510 -4050 0
-511 -4051 0
-512 -4052 0
-513 -4053 0
-514 -4054 0
-515 -4055 0
-516 -4056 0
-517 -4057 0
-518 -4058 0
-519 -4059 0
-520 -4060 0
-521 -4061 0
-522 -4062 0
-523 -4063 0
-524 -4064 0
-525 -4065 0
-526 -4066 0
-527 -4067 0
-528 -4068 0
-529 -4069 0
-530 -4070 0
-531 -4071 0
-532 -4072 0
-533 -4073 0
-534 -4074 0
-535 -4075 0
-536 -4076 0
-537 -4077 0
-538 -4078 0
-539 -4079 0
-540 -4080 0
-481 -4261 0
-482 -4262 0
-483 -4263 0
-484 -4264 0
-485 -4265 0
-486 -4266 0
-487 -4267 0
-488 -4268 0
-489 -4269 0
-490 -4270 0
-491 -4271 0
-492 -4272 0
-493 -4273 0
-494 -4274 0
-495 -4275 0
-496 -4276 0
-497 -4277 0
-498 -4278 0
-499 -4279 0
-500 -4280 0
-501 -4281 0
-502 -4282 0
-503 -4283 0
-504 -4284 0
-505 -4285 0
-506 -4286 0
-507 -4287 0
-508 -4288 0
-509 -4289 0
-510 -4290 0
-511 -4291 0
-512 -4292 0
-513 -4293 0
-514 -4294 0
-515 -4295 0
-516 -4296 0
-517 -4297 0
-518 -4298 0
-519 -4299 0
-520 -4300 0
-521 -4301 0
-522 -4302 0
-523 -4303 0
-524 -4304 0
-525 -4305 0
-526 -4306 0
-527 -4307 0
-528 -4308 0
-529 -4309 0
-530 -4310 0
-531 -4311 0
-532 -4312 0
-533 -4313 0
-534 -4314 0
-535 -4315 0
-536 -4316 0
-537 -4317 0
-538 -4318 0
-539 -4319 0
-540 -4320 0
-481 -4681 0
-482 -4682 0
-483 -4683 0
-484 -4684 0
-485 -4685 0
-486 -4686 0
-487 -4687 0
-488 -4688 0
-489 -4689 0
-490 -4690 0
-491 -4691 0
-492 -4692 0
-493 -4693 0
-494 -4694 0
-495 -4695 0
-496 -4696 0
-497 -4697 0
-498 -4698 0
-499 -4699 0
-500 -4700 0
-501 -4701 0
-502 -4702 0
-503 -4703 0
-504 -4704 0
-505 -4705 0
-506 -4706 0
-507 -4707 0
-508 -4708 0
-509 -4709 0
-510 -4710 0
-511 -4711 0
-512 -4712 0
-513 -4713 0
-514 -4714 0
-515 -4715 0
-516 -4716 0
-517 -4717 0
-518 -4718 0
-519 -4719 0
-520 -4720 0
-521 -4721 0
-522 -4722 0
-523 -4723 0
-524 -4724 0
-525 -4725 0
-526 -4726 0
-527 -4727 0
-528 -4728 0
-529 -4729 0
-530 -4730 0
-531 -4731 0
-532 -4732 0
-533 -4733 0
-534 -4734 0
-535 -4735 0
-536 -4736 0
-537 -4737 0
-538 -4738 0
-539 -4739 0
-540 -4740 0
-541 -241 0
-542 -242 0
-543 -243 0
-544 -244 0
-545 -245 0
-546 -246 0
-547 -247 0
-548 -248 0
-549 -249 0
-550 -250 0
-551 -251 0
-552 -252 0
-553 -253 0
-554 -254 0
-555 -255 0
-556 -256 0
-557 -257 0
-558 -258 0
-559 -259 0
-560 -260 0
-561 -261 0
-562 -262 0
-563 -263 0
-564 -264 0
-565 -265 0
-566 -266 0
-567 -267 0
-568 -268 0
-569 -269 0
-570 -270 0
-571 -271 0
-572 -272 0
-573 -273 0
-574 -274 0
-575 -275 0
-576 -276 0
-577 -277 0
-578 -278 0
-579 -279 0
-580 -280 0
-581 -281 0
-582 -282 0
-583 -283 0
-584 -284 0
-585 -285 0
-586 -286 0
-587 -287 0
-588 -288 0
-589 -289 0
-590 -290 0
-591 -291 0
-592 -292 0
-593 -293 0
-594 -294 0
-595 -295 0
-596 -296 0
-597 -297 0
-598 -298 0
-599 -299 0
-600 -300 0
-541 -961 0
-542 -962 0
-543 -963 0
-544 -964 0
-545 -965 0
-546 -966 0
-547 -967 0
-548 -968 0
-549 -969 0
-550 -970 0
-551 -971 0
-552 -972 0
-553 -973 0
-554 -974 0
-555 -975 0
-556 -976 0
-557 -977 0
-558 -978 0
-559 -979 0
-560 -980 0
-561 -981 0
-562 -982 0
-563 -983 0
-564 -984 0
-565 -985 0
-566 -986 0
-567 -987 0
-568 -988 0
-569 -989 0
-570 -990 0
-571 -991 0
-572 -992 0
-573 -993 0
-574 -994 0
-575 -995 0
-576 -996 0
-577 -997 0
-578 -998 0
-579 -999 0
-580 -1000 0
-581 -1001 0
-582 -1002 0
-583 -1003 0
-584 -1004 0
-585 -1005 0
-586 -1006 0
-587 -1007 0
-588 -1008 0
-589 -1009 0
-590 -1010 0
-591 -1011 0
-592 -1012 0
-593 -1013 0
-594 -1014 0
-595 -1015 0
-596 -1016 0
-597 -1017 0
-598 -1018 0
-599 -1019 0
-600 -1020 0
-541 -1141 0
-542 -1142 0
-543 -1143 0
-544 -1144 0
-545 -1145 0
-546 -1146 0
-547 -1147 0
-548 -1148 0
-549 -1149 0
-550 -1150 0
-551 -1151 0
-552 -1152 0
-553 -1153 0
-554 -1154 0
-555 -1155 0
-556 -1156 0
-557 -1157 0
-558 -1158 0
-559 -1159 0
-560 -1160 0
-561 -1161 0
-562 -1162 0
-563 -1163 0
-564 -1164 0
-565 -1165 0
-566 -1166 0
-567 -1167 0
-568 -1168 0
-569 -1169 0
-570 -1170 0
-571 -1171 0
-572 -1172 0
-573 -1173 0
-574 -1174 0
-575 -1175 0
-576 -1176 0
-577 -1177 0
-578 -1178 0
-579 -1179 0
-580 -1180 0
-581 -1181 0
-582 -1182 0
-583 -1183 0
-584 -1184 0
-585 -1185 0
-586 -1186 0
-587 -1187 0
-588 -1188 0
-589 -1189 0
-590 -1190 0
-591 -1191 0
-592 -1192 0
-593 -1193 0
-594 -1194 0
-595 -1195 0
-596 -1196 0
-597 -1197 0
-598 -1198 0
-599 -1199 0
-600 -1200 0
-541 -1261 0
-542 -1262 0
-543 -1263 0
-544 -1264 0
-545 -1265 0
-546 -1266 0
-547 -1267 0
-548 -1268 0
-549 -1269 0
-550 -1270 0
-551 -1271 0
-552 -1272 0
-553 -1273 0
-554 -1274 0
-555 -1275 0
-556 -1276 0
-557 -1277 0
-558 -1278 0
-559 -1279 0
-560 -1280 0
-561 -1281 0
-562 -1282 0
-563 -1283 0
-564 -1284 0
-565 -1285 0
-566 -1286 0
-567 -1287 0
-568 -1288 0
-569 -1289 0
-570 -1290 0
-571 -1291 0
-572 -1292 0
-573 -1293 0
-574 -1294 0
-575 -1295 0
-576 -1296 0
-577 -1297 0
-578 -1298 0
-579 -1299 0
-580 -1300 0
-581 -1301 0
-582 -1302 0
-583 -1303 0
-584 -1304 0
-585 -1305 0
-586 -1306 0
-587 -1307 0
-588 -1308 0
-589 -1309 0
-590 -1310 0
-591 -1311 0
-592 -1312 0
-593 -1313 0
-594 -1314 0
-595 -1315 0
-596 -1316 0
-597 -1317 0
-598 -1318 0
-599 -1319 0
-600 -1320 0
-541 -2161 0
-542 -2162 0
-543 -2163 0
-544 -2164 0
-545 -2165 0
-546 -2166 0
-547 -2167 0
-548 -2168 0
-549 -2169 0
-550 -2170 0
-551 -2171 0
-552 -2172 0
-553 -2173 0
-554 -2174 0
-555 -2175 0
-556 -2176 0
-557 -2177 0
-558 -2178 0
-559 -2179 0
-560 -2180 0
-561 -2181 0
-562 -2182 0
-563 -2183 0
-564 -2184 0
-565 -2185 0
-566 -2186 0
-567 -2187 0
-568 -2188 0
-569 -2189 0
-570 -2190 0
-571 -2191 0
-572 -2192 0
-573 -2193 0
-574 -2194 0
-575 -2195 0
-576 -2196 0
-577 -2197 0
-578 -2198 0
-579 -2199 0
-580 -2200 0
-581 -2201 0
-582 -2202 0
-583 -2203 0
-584 -2204 0
-585 -2205 0
-586 -2206 0
-587 -2207 0
-588 -2208 0
-589 -2209 0
-590 -2210 0
-591 -2211 0
-592 -2212 0
-593 -2213 0
-594 -2214 0
-595 -2215 0
-596 -2216 0
-597 -2217 0
-598 -2218 0
-599 -2219 0
-600 -2220 0
-541 -2281 0
-542 -2282 0
-543 -2283 0
-544 -2284 0
-545 -2285 0
-546 -2286 0
-547 -2287 0
-548 -2288 0
-549 -2289 0
-550 -2290 0
-551 -2291 0
-552 -2292 0
-553 -2293 0
-554 -2294 0
-555 -2295 0
-556 -2296 0
-557 -2297 0
-558 -2298 0
-559 -2299 0
-560 -2300 0
-561 -2301 0
-562 -2302 0
-563 -2303 0
-564 -2304 0
-565 -2305 0
-566 -2306 0
-567 -2307 0
-568 -2308 0
-569 -2309 0
-570 -2310 0
-571 -2311 0
-572 -2312 0
-573 -2313 0
-574 -2314 0
-575 -2315 0
-576 -2316 0
-577 -2317 0
-578 -2318 0
-579 -2319 0
-580 -2320 0
-581 -2321 0
-582 -2322 0
-583 -2323 0
-584 -2324 0
-585 -2325 0
-586 -2326 0
-587 -2327 0
-588 -2328 0
-589 -2329 0
-590 -2330 0
-591 -2331 0
-592 -2332 0
-593 -2333 0
-594 -2334 0
-595 -2335 0
-596 -2336 0
-597 -2337 0
-598 -2338 0
-599 -2339 0
-600 -2340 0
-601 -2461 0
-602 -2462 0
-603 -2463 0
-604 -2464 0
-605 -2465 0
-606 -2466 0
-607 -2467 0
-608 -2468 0
-609 -2469 0
-610 -2470 0
-611 -2471 0
-612 -2472 0
-613 -2473 0
-614 -2474 0
-615 -2475 0
-616 -2476 0
-617 -2477 0
-618 -2478 0
-619 -2479 0
-620 -2480 0
-621 -2481 0
-622 -2482 0
-623 -2483 0
-624 -2484 0
-625 -2485 0
-626 -2486 0
-627 -2487 0
-628 -2488 0
-629 -2489 0
-630 -2490 0
-631 -2491 0
-632 -2492 0
-633 -2493 0
-634 -2494 0
-635 -2495 0
-636 -2496 0
-637 -2497 0
-638 -2498 0
-639 -2499 0
-640 -2500 0
-641 -2501 0
-642 -2502 0
-643 -2503 0
-644 -2504 0
-645 -2505 0
-646 -2506 0
-647 -2507 0
-648 -2508 0
-649 -2509 0
-650 -2510 0
-651 -2511 0
-652 -2512 0
-653 -2513 0
-654 -2514 0
-655 -2515 0
-656 -2516 0
-657 -2517 0
-658 -2518 0
-659 -2519 0
-660 -2520 0
-601 -4261 0
-602 -4262 0
-603 -4263 0
-604 -4264 0
-605 -4265 0
-606 -4266 0
-607 -4267 0
-608 -4268 0
-609 -4269 0
-610 -4270 0
-611 -4271 0
-612 -4272 0
-613 -4273 0
-614 -4274 0
-615 -4275 0
-616 -4276 0
-617 -4277 0
-618 -4278 0
-619 -4279 0
-620 -4280 0
-621 -4281 0
-622 -4282 0
-623 -4283 0
-624 -4284 0
-625 -4285 0
-626 -4286 0
-627 -4287 0
-628 -4288 0
-629 -4289 0
-630 -4290 0
-631 -4291 0
-632 -4292 0
-633 -4293 0
-634 -4294 0
-635 -4295 0
-636 -4296 0
-637 -4297 0
-638 -4298 0
-639 -4299 0
-640 -4300 0
-641 -4301 0
-642 -4302 0
-643 -4303 0
-644 -4304 0
-645 -4305 0
-646 -4306 0
-647 -4307 0
-648 -4308 0
-649 -4309 0
-650 -4310 0
-651 -4311 0
-652 -4312 0
-653 -4313 0
-654 -4314 0
-655 -4315 0
-656 -4316 0
-657 -4317 0
-658 -4318 0
-659 -4319 0
-660 -4320 0
-661 -781 0
-662 -782 0
-663 -783 0
-664 -784 0
-665 -785 0
-666 -786 0
-667 -787 0
-668 -788 0
-669 -789 0
-670 -790 0
-671 -791 0
-672 -792 0
-673 -793 0
-674 -794 0
-675 -795 0
-676 -796 0
-677 -797 0
-678 -798 0
-679 -799 0
-680 -800 0
-681 -801 0
-682 -802 0
-683 -803 0
-684 -804 0
-685 -805 0
-686 -806 0
-687 -807 0
-688 -808 0
-689 -809 0
-690 -810 0
-691 -811 0
-692 -812 0
-693 -813 0
-694 -814 0
-695 -815 0
-696 -816 0
-697 -817 0
-698 -818 0
-699 -819 0
-700 -820 0
-701 -821 0
-702 -822 0
-703 -823 0
-704 -824 0
-705 -825 0
-706 -826 0
-707 -827 0
-708 -828 0
-709 -829 0
-710 -830 0
-711 -831 0
-712 -832 0
-713 -833 0
-714 -834 0
-715 -835 0
-716 -836 0
-717 -837 0
-718 -838 0
-719 -839 0
-720 -840 0
-721 -2521 0
-722 -2522 0
-723 -2523 0
-724 -2524 0
-725 -2525 0
-726 -2526 0
-727 -2527 0
-728 -2528 0
-729 -2529 0
-730 -2530 0
-731 -2531 0
-732 -2532 0
-733 -2533 0
-734 -2534 0
-735 -2535 0
-736 -2536 0
-737 -2537 0
-738 -2538 0
-739 -2539 0
-740 -2540 0
-741 -2541 0
-742 -2542 0
-743 -2543 0
-744 -2544 0
-745 -2545 0
-746 -2546 0
-747 -2547 0
-748 -2548 0
-749 -2549 0
-750 -2550 0
-751 -2551 0
-752 -2552 0
-753 -2553 0
-754 -2554 0
-755 -2555 0
-756 -2556 0
-757 -2557 0
-758 -2558 0
-759 -2559 0
-760 -2560 0
-761 -2561 0
-762 -2562 0
-763 -2563 0
-764 -2564 0
-765 -2565 0
-766 -2566 0
-767 -2567 0
-768 -2568 0
-769 -2569 0
-770 -2570 0
-771 -2571 0
-772 -2572 0
-773 -2573 0
-774 -2574 0
-775 -2575 0
-776 -2576 0
-777 -2577 0
-778 -2578 0
-779 -2579 0
-780 -2580 0
-781 -1 0
-782 -2 0
-783 -3 0
-784 -4 0
-785 -5 0
-786 -6 0
-787 -7 0
-788 -8 0
-789 -9 0
-790 -10 0
-791 -11 0
-792 -12 0
-793 -13 0
-794 -14 0
-795 -15 0
-796 -16 0
-797 -17 0
-798 -18 0
-799 -19 0
-800 -20 0
-801 -21 0
-802 -22 0
-803 -23 0
-804 -24 0
-805 -25 0
-806 -26 0
-807 -27 0
-808 -28 0
-809 -29 0
-810 -30 0
-811 -31 0
-812 -32 0
-813 -33 0
-814 -34 0
-815 -35 0
-816 -36 0
-817 -37 0
-818 -38 0
-819 -39 0
-820 -40 0
-821 -41 0
-822 -42 0
-823 -43 0
-824 -44 0
-825 -45 0
-826 -46 0
-827 -47 0
-828 -48 0
-829 -49 0
-830 -50 0
-831 -51 0
-832 -52 0
-833 -53 0
-834 -54 0
-835 -55 0
-836 -56 0
-837 -57 0
-838 -58 0
-839 -59 0
-840 -60 0
-781 -61 0
-782 -62 0
-783 -63 0
-784 -64 0
-785 -65 0
-786 -66 0
-787 -67 0
-788 -68 0
-789 -69 0
-790 -70 0
-791 -71 0
-792 -72 0
-793 -73 0
-794 -74 0
-795 -75 0
-796 -76 0
-797 -77 0
-798 -78 0
-799 -79 0
-800 -80 0
-801 -81 0
-802 -82 0
-803 -83 0
-804 -84 0
-805 -85 0
-806 -86 0
-807 -87 0
-808 -88 0
-809 -89 0
-810 -90 0
-811 -91 0
-812 -92 0
-813 -93 0
-814 -94 0
-815 -95 0
-816 -96 0
-817 -97 0
-818 -98 0
-819 -99 0
-820 -100 0
-821 -101 0
-822 -102 0
-823 -103 0
-824 -104 0
-825 -105 0
-826 -106 0
-827 -107 0
-828 -108 0
-829 -109 0
-830 -110 0
-831 -111 0
-832 -112 0
-833 -113 0
-834 -114 0
-835 -115 0
-836 -116 0
-837 -117 0
-838 -118 0
-839 -119 0
-840 -120 0
-781 -661 0
-782 -662 0
-783 -663 0
-784 -664 0
-785 -665 0
-786 -666 0
-787 -667 0
-788 -668 0
-789 -669 0
-790 -670 0
-791 -671 0
-792 -672 0
-793 -673 0
-794 -674 0
-795 -675 0
-796 -676 0
-797 -677 0
-798 -678 0
-799 -679 0
-800 -680 0
-801 -681 0
-802 -682 0
-803 -683 0
-804 -684 0
-805 -685 0
-806 -686 0
-807 -687 0
-808 -688 0
-809 -689 0
-810 -690 0
-811 -691 0
-812 -692 0
-813 -693 0
-814 -694 0
-815 -695 0
-816 -696 0
-817 -697 0
-818 -698 0
-819 -699 0
-820 -700 0
-821 -701 0
-822 -702 0
-823 -703 0
-824 -704 0
-825 -705 0
-826 -706 0
-827 -707 0
-828 -708 0
-829 -709 0
-830 -710 0
-831 -711 0
-832 -712 0
-833 -713 0
-834 -714 0
-835 -715 0
-836 -716 0
-837 -717 0
-838 -718 0
-839 -719 0
-840 -720 0
-781 -1381 0
-782 -1382 0
-783 -1383 0
-784 -1384 0
-785 -1385 0
-786 -1386 0
-787 -1387 0
-788 -1388 0
-789 -1389 0
-790 -1390 0
-791 -1391 0
-792 -1392 0
-793 -1393 0
-794 -1394 0
-795 -1395 0
-796 -1396 0
-797 -1397 0
-798 -1398 0
-799 -1399 0
-800 -1400 0
-801 -1401 0
-802 -1402 0
-803 -1403 0
-804 -1404 0
-805 -1405 0
-806 -1406 0
-807 -1407 0
-808 -1408 0
-809 -1409 0
-810 -1410 0
-811 -1411 0
-812 -1412 0
-813 -1413 0
-814 -1414 0
-815 -1415 0
-816 -1416 0
-817 -1417 0
-818 -1418 0
-819 -1419 0
-820 -1420 0
-821 -1421 0
-822 -1422 0
-823 -1423 0
-824 -1424 0
-825 -1425 0
-826 -1426 0
-827 -1427 0
-828 -1428 0
-829 -1429 0
-830 -1430 0
-831 -1431 0
-832 -1432 0
-833 -1433 0
-834 -1434 0
-835 -1435 0
-836 -1436 0
-837 -1437 0
-838 -1438 0
-839 -1439 0
-840 -1440 0
-781 -1861 0
-782 -1862 0
-783 -1863 0
-784 -1864 0
-785 -1865 0
-786 -1866 0
-787 -1867 0
-788 -1868 0
-789 -1869 0
-790 -1870 0
-791 -1871 0
-792 -1872 0
-793 -1873 0
-794 -1874 0
-795 -1875 0
-796 -1876 0
-797 -1877 0
-798 -1878 0
-799 -1879 0
-800 -1880 0
-801 -1881 0
-802 -1882 0
-803 -1883 0
-804 -1884 0
-805 -1885 0
-806 -1886 0
-807 -1887 0
-808 -1888 0
-809 -1889 0
-810 -1890 0
-811 -1891 0
-812 -1892 0
-813 -1893 0
-814 -1894 0
-815 -1895 0
-816 -1896 0
-817 -1897 0
-818 -1898 0
-819 -1899 0
-820 -1900 0
-821 -1901 0
-822 -1902 0
-823 -1903 0
-824 -1904 0
-825 -1905 0
-826 -1906 0
-827 -1907 0
-828 -1908 0
-829 -1909 0
-830 -1910 0
-831 -1911 0
-832 -1912 0
-833 -1913 0
-834 -1914 0
-835 -1915 0
-836 -1916 0
-837 -1917 0
-838 -1918 0
-839 -1919 0
-840 -1920 0
-781 -2161 0
-782 -2162 0
-783 -2163 0
-784 -2164 0
-785 -2165 0
-786 -2166 0
-787 -2167 0
-788 -2168 0
-789 -2169 0
-790 -2170 0
-791 -2171 0
-792 -2172 0
-793 -2173 0
-794 -2174 0
-795 -2175 0
-796 -2176 0
-797 -2177 0
-798 -2178 0
-799 -2179 0
-800 -2180 0
-801 -2181 0
-802 -2182 0
-803 -2183 0
-804 -2184 0
-805 -2185 0
-806 -2186 0
-807 -2187 0
-808 -2188 0
-809 -2189 0
-810 -2190 0
-811 -2191 0
-812 -2192 0
-813 -2193 0
-814 -2194 0
-815 -2195 0
-816 -2196 0
-817 -2197 0
-818 -2198 0
-819 -2199 0
-820 -2200 0
-821 -2201 0
-822 -2202 0
-823 -2203 0
-824 -2204 0
-825 -2205 0
-826 -2206 0
-827 -2207 0
-828 -2208 0
-829 -2209 0
-830 -2210 0
-831 -2211 0
-832 -2212 0
-833 -2213 0
-834 -2214 0
-835 -2215 0
-836 -2216 0
-837 -2217 0
-838 -2218 0
-839 -2219 0
-840 -2220 0
-781 -2401 0
-782 -2402 0
-783 -2403 0
-784 -2404 0
-785 -2405 0
-786 -2406 0
-787 -2407 0
-788 -2408 0
-789 -2409 0
-790 -2410 0
-791 -2411 0
-792 -2412 0
-793 -2413 0
-794 -2414 0
-795 -2415 0
-796 -2416 0
-797 -2417 0
-798 -2418 0
-799 -2419 0
-800 -2420 0
-801 -2421 0
-802 -2422 0
-803 -2423 0
-804 -2424 0
-805 -2425 0
-806 -2426 0
-807 -2427 0
-808 -2428 0
-809 -2429 0
-810 -2430 0
-811 -2431 0
-812 -2432 0
-813 -2433 0
-814 -2434 0
-815 -2435 0
-816 -2436 0
-817 -2437 0
-818 -2438 0
-819 -2439 0
-820 -2440 0
-821 -2441 0
-822 -2442 0
-823 -2443 0
-824 -2444 0
-825 -2445 0
-826 -2446 0
-827 -2447 0
-828 -2448 0
-829 -2449 0
-830 -2450 0
-831 -2451 0
-832 -2452 0
-833 -2453 0
-834 -2454 0
-835 -2455 0
-836 -2456 0
-837 -2457 0
-838 -2458 0
-839 -2459 0
-840 -2460 0
-781 -3841 0
-782 -3842 0
-783 -3843 0
-784 -3844 0
-785 -3845 0
-786 -3846 0
-787 -3847 0
-788 -3848 0
-789 -3849 0
-790 -3850 0
-791 -3851 0
-792 -3852 0
-793 -3853 0
-794 -3854 0
-795 -3855 0
-796 -3856 0
-797 -3857 0
-798 -3858 0
-799 -3859 0
-800 -3860 0
-801 -3861 0
-802 -3862 0
-803 -3863 0
-804 -3864 0
-805 -3865 0
-806 -3866 0
-807 -3867 0
-808 -3868 0
-809 -3869 0
-810 -3870 0
-811 -3871 0
-812 -3872 0
-813 -3873 0
-814 -3874 0
-815 -3875 0
-816 -3876 0
-817 -3877 0
-818 -3878 0
-819 -3879 0
-820 -3880 0
-821 -3881 0
-822 -3882 0
-823 -3883 0
-824 -3884 0
-825 -3885 0
-826 -3886 0
-827 -3887 0
-828 -3888 0
-829 -3889 0
-830 -3890 0
-831 -3891 0
-832 -3892 0
-833 -3893 0
-834 -3894 0
-835 -3895 0
-836 -3896 0
-837 -3897 0
-838 -3898 0
-839 -3899 0
-840 -3900 0
-781 -4441 0
-782 -4442 0
-783 -4443 0
-784 -4444 0
-785 -4445 0
-786 -4446 0
-787 -4447 0
-788 -4448 0
-789 -4449 0
-790 -4450 0
-791 -4451 0
-792 -4452 0
-793 -4453 0
-794 -4454 0
-795 -4455 0
-796 -4456 0
-797 -4457 0
-798 -4458 0
-799 -4459 0
-800 -4460 0
-801 -4461 0
-802 -4462 0
-803 -4463 0
-804 -4464 0
-805 -4465 0
-806 -4466 0
-807 -4467 0
-808 -4468 0
-809 -4469 0
-810 -4470 0
-811 -4471 0
-812 -4472 0
-813 -4473 0
-814 -4474 0
-815 -4475 0
-816 -4476 0
-817 -4477 0
-818 -4478 0
-819 -4479 0
-820 -4480 0
-821 -4481 0
-822 -4482 0
-823 -4483 0
-824 -4484 0
-825 -4485 0
-826 -4486 0
-827 -4487 0
-828 -4488 0
-829 -4489 0
-830 -4490 0
-831 -4491 0
-832 -4492 0
-833 -4493 0
-834 -4494 0
-835 -4495 0
-836 -4496 0
-837 -4497 0
-838 -4498 0
-839 -4499 0
-840 -4500 0
-781 -4741 0
-782 -4742 0
-783 -4743 0
-784 -4744 0
-785 -4745 0
-786 -4746 0
-787 -4747 0
-788 -4748 0
-789 -4749 0
-790 -4750 0
-791 -4751 0
-792 -4752 0
-793 -4753 0
-794 -4754 0
-795 -4755 0
-796 -4756 0
-797 -4757 0
-798 -4758 0
-799 -4759 0
-800 -4760 0
-801 -4761 0
-802 -4762 0
-803 -4763 0
-804 -4764 0
-805 -4765 0
-806 -4766 0
-807 -4767 0
-808 -4768 0
-809 -4769 0
-810 -4770 0
-811 -4771 0
-812 -4772 0
-813 -4773 0
-814 -4774 0
-815 -4775 0
-816 -4776 0
-817 -4777 0
-818 -4778 0
-819 -4779 0
-820 -4780 0
-821 -4781 0
-822 -4782 0
-823 -4783 0
-824 -4784 0
-825 -4785 0
-826 -4786 0
-827 -4787 0
-828 -4788 0
-829 -4789 0
-830 -4790 0
-831 -4791 0
-832 -4792 0
-833 -4793 0
-834 -4794 0
-835 -4795 0
-836 -4796 0
-837 -4797 0
-838 -4798 0
-839 -4799 0
-840 -4800 0
-841 -361 0
-842 -362 0
-843 -363 0
-844 -364 0
-845 -365 0
-846 -366 0
-847 -367 0
-848 -368 0
-849 -369 0
-850 -370 0
-851 -371 0
-852 -372 0
-853 -373 0
-854 -374 0
-855 -375 0
-856 -376 0
-857 -377 0
-858 -378 0
-859 -379 0
-860 -380 0
-861 -381 0
-862 -382 0
-863 -383 0
-864 -384 0
-865 -385 0
-866 -386 0
-867 -387 0
-868 -388 0
-869 -389 0
-870 -390 0
-871 -391 0
-872 -392 0
-873 -393 0
-874 -394 0
-875 -395 0
-876 -396 0
-877 -397 0
-878 -398 0
-879 -399 0
-880 -400 0
-881 -401 0
-882 -402 0
-883 -403 0
-884 -404 0
-885 -405 0
-886 -406 0
-887 -407 0
-888 -408 0
-889 -409 0
-890 -410 0
-891 -411 0
-892 -412 0
-893 -413 0
-894 -414 0
-895 -415 0
-896 -416 0
-897 -417 0
-898 -418 0
-899 -419 0
-900 -420 0
-841 -481 0
-842 -482 0
-843 -483 0
-844 -484 0
-845 -485 0
-846 -486 0
-847 -487 0
-848 -488 0
-849 -489 0
-850 -490 0
-851 -491 0
-852 -492 0
-853 -493 0
-854 -494 0
-855 -495 0
-856 -496 0
-857 -497 0
-858 -498 0
-859 -499 0
-860 -500 0
-861 -501 0
-862 -502 0
-863 -503 0
-864 -504 0
-865 -505 0
-866 -506 0
-867 -507 0
-868 -508 0
-869 -509 0
-870 -510 0
-871 -511 0
-872 -512 0
-873 -513 0
-874 -514 0
-875 -515 0
-876 -516 0
-877 -517 0
-878 -518 0
-879 -519 0
-880 -520 0
-881 -521 0
-882 -522 0
-883 -523 0
-884 -524 0
-885 -525 0
-886 -526 0
-887 -527 0
-888 -528 0
-889 -529 0
-890 -530 0
-891 -531 0
-892 -532 0
-893 -533 0
-894 -534 0
-895 -535 0
-896 -536 0
-897 -537 0
-898 -538 0
-899 -539 0
-900 -540 0
-841 -1081 0
-842 -1082 0
-843 -1083 0
-844 -1084 0
-845 -1085 0
-846 -1086 0
-847 -1087 0
-848 -1088 0
-849 -1089 0
-850 -1090 0
-851 -1091 0
-852 -1092 0
-853 -1093 0
-854 -1094 0
-855 -1095 0
-856 -1096 0
-857 -1097 0
-858 -1098 0
-859 -1099 0
-860 -1100 0
-861 -1101 0
-862 -1102 0
-863 -1103 0
-864 -1104 0
-865 -1105 0
-866 -1106 0
-867 -1107 0
-868 -1108 0
-869 -1109 0
-870 -1110 0
-871 -1111 0
-872 -1112 0
-873 -1113 0
-874 -1114 0
-875 -1115 0
-876 -1116 0
-877 -1117 0
-878 -1118 0
-879 -1119 0
-880 -1120 0
-881 -1121 0
-882 -1122 0
-883 -1123 0
-884 -1124 0
-885 -1125 0
-886 -1126 0
-887 -1127 0
-888 -1128 0
-889 -1129 0
-890 -1130 0
-891 -1131 0
-892 -1132 0
-893 -1133 0
-894 -1134 0
-895 -1135 0
-896 -1136 0
-897 -1137 0
-898 -1138 0
-899 -1139 0
-900 -1140 0
-841 -1321 0
-842 -1322 0
-843 -1323 0
-844 -1324 0
-845 -1325 0
-846 -1326 0
-847 -1327 0
-848 -1328 0
-849 -1329 0
-850 -1330 0
-851 -1331 0
-852 -1332 0
-853 -1333 0
-854 -1334 0
-855 -1335 0
-856 -1336 0
-857 -1337 0
-858 -1338 0
-859 -1339 0
-860 -1340 0
-861 -1341 0
-862 -1342 0
-863 -1343 0
-864 -1344 0
-865 -1345 0
-866 -1346 0
-867 -1347 0
-868 -1348 0
-869 -1349 0
-870 -1350 0
-871 -1351 0
-872 -1352 0
-873 -1353 0
-874 -1354 0
-875 -1355 0
-876 -1356 0
-877 -1357 0
-878 -1358 0
-879 -1359 0
-880 -1360 0
-881 -1361 0
-882 -1362 0
-883 -1363 0
-884 -1364 0
-885 -1365 0
-886 -1366 0
-887 -1367 0
-888 -1368 0
-889 -1369 0
-890 -1370 0
-891 -1371 0
-892 -1372 0
-893 -1373 0
-894 -1374 0
-895 -1375 0
-896 -1376 0
-897 -1377 0
-898 -1378 0
-899 -1379 0
-900 -1380 0
-841 -1501 0
-842 -1502 0
-843 -1503 0
-844 -1504 0
-845 -1505 0
-846 -1506 0
-847 -1507 0
-848 -1508 0
-849 -1509 0
-850 -1510 0
-851 -1511 0
-852 -1512 0
-853 -1513 0
-854 -1514 0
-855 -1515 0
-856 -1516 0
-857 -1517 0
-858 -1518 0
-859 -1519 0
-860 -1520 0
-861 -1521 0
-862 -1522 0
-863 -1523 0
-864 -1524 0
-865 -1525 0
-866 -1526 0
-867 -1527 0
-868 -1528 0
-869 -1529 0
-870 -1530 0
-871 -1531 0
-872 -1532 0
-873 -1533 0
-874 -1534 0
-875 -1535 0
-876 -1536 0
-877 -1537 0
-878 -1538 0
-879 -1539 0
-880 -1540 0
-881 -1541 0
-882 -1542 0
-883 -1543 0
-884 -1544 0
-885 -1545 0
-886 -1546 0
-887 -1547 0
-888 -1548 0
-889 -1549 0
-890 -1550 0
-891 -1551 0
-892 -1552 0
-893 -1553 0
-894 -1554 0
-895 -1555 0
-896 -1556 0
-897 -1557 0
-898 -1558 0
-899 -1559 0
-900 -1560 0
-841 -1681 0
-842 -1682 0
-843 -1683 0
-844 -1684 0
-845 -1685 0
-846 -1686 0
-847 -1687 0
-848 -1688 0
-849 -1689 0
-850 -1690 0
-851 -1691 0
-852 -1692 0
-853 -1693 0
-854 -1694 0
-855 -1695 0
-856 -1696 0
-857 -1697 0
-858 -1698 0
-859 -1699 0
-860 -1700 0
-861 -1701 0
-862 -1702 0
-863 -1703 0
-864 -1704 0
-865 -1705 0
-866 -1706 0
-867 -1707 0
-868 -1708 0
-869 -1709 0
-870 -1710 0
-871 -1711 0
-872 -1712 0
-873 -1713 0
-874 -1714 0
-875 -1715 0
-876 -1716 0
-877 -1717 0
-878 -1718 0
-879 -1719 0
-880 -1720 0
-881 -1721 0
-882 -1722 0
-883 -1723 0
-884 -1724 0
-885 -1725 0
-886 -1726 0
-887 -1727 0
-888 -1728 0
-889 -1729 0
-890 -1730 0
-891 -1731 0
-892 -1732 0
-893 -1733 0
-894 -1734 0
-895 -1735 0
-896 -1736 0
-897 -1737 0
-898 -1738 0
-899 -1739 0
-900 -1740 0
-841 -1921 0
-842 -1922 0
-843 -1923 0
-844 -1924 0
-845 -1925 0
-846 -1926 0
-847 -1927 0
-848 -1928 0
-849 -1929 0
-850 -1930 0
-851 -1931 0
-852 -1932 0
-853 -1933 0
-854 -1934 0
-855 -1935 0
-856 -1936 0
-857 -1937 0
-858 -1938 0
-859 -1939 0
-860 -1940 0
-861 -1941 0
-862 -1942 0
-863 -1943 0
-864 -1944 0
-865 -1945 0
-866 -1946 0
-867 -1947 0
-868 -1948 0
-869 -1949 0
-870 -1950 0
-871 -1951 0
-872 -1952 0
-873 -1953 0
-874 -1954 0
-875 -1955 0
-876 -1956 0
-877 -1957 0
-878 -1958 0
-879 -1959 0
-880 -1960 0
-881 -1961 0
-882 -1962 0
-883 -1963 0
-884 -1964 0
-885 -1965 0
-886 -1966 0
-887 -1967 0
-888 -1968 0
-889 -1969 0
-890 -1970 0
-891 -1971 0
-892 -1972 0
-893 -1973 0
-894 -1974 0
-895 -1975 0
-896 -1976 0
-897 -1977 0
-898 -1978 0
-899 -1979 0
-900 -1980 0
-841 -1981 0
-842 -1982 0
-843 -1983 0
-844 -1984 0
-845 -1985 0
-846 -1986 0
-847 -1987 0
-848 -1988 0
-849 -1989 0
-850 -1990 0
-851 -1991 0
-852 -1992 0
-853 -1993 0
-854 -1994 0
-855 -1995 0
-856 -1996 0
-857 -1997 0
-858 -1998 0
-859 -1999 0
-860 -2000 0
-861 -2001 0
-862 -2002 0
-863 -2003 0
-864 -2004 0
-865 -2005 0
-866 -2006 0
-867 -2007 0
-868 -2008 0
-869 -2009 0
-870 -2010 0
-871 -2011 0
-872 -2012 0
-873 -2013 0
-874 -2014 0
-875 -2015 0
-876 -2016 0
-877 -2017 0
-878 -2018 0
-879 -2019 0
-880 -2020 0
-881 -2021 0
-882 -2022 0
-883 -2023 0
-884 -2024 0
-885 -2025 0
-886 -2026 0
-887 -2027 0
-888 -2028 0
-889 -2029 0
-890 -2030 0
-891 -2031 0
-892 -2032 0
-893 -2033 0
-894 -2034 0
-895 -2035 0
-896 -2036 0
-897 -2037 0
-898 -2038 0
-899 -2039 0
-900 -2040 0
-841 -2161 0
-842 -2162 0
-843 -2163 0
-844 -2164 0
-845 -2165 0
-846 -2166 0
-847 -2167 0
-848 -2168 0
-849 -2169 0
-850 -2170 0
-851 -2171 0
-852 -2172 0
-853 -2173 0
-854 -2174 0
-855 -2175 0
-856 -2176 0
-857 -2177 0
-858 -2178 0
-859 -2179 0
-860 -2180 0
-861 -2181 0
-862 -2182 0
-863 -2183 0
-864 -2184 0
-865 -2185 0
-866 -2186 0
-867 -2187 0
-868 -2188 0
-869 -2189 0
-870 -2190 0
-871 -2191 0
-872 -2192 0
-873 -2193 0
-874 -2194 0
-875 -2195 0
-876 -2196 0
-877 -2197 0
-878 -2198 0
-879 -2199 0
-880 -2200 0
-881 -2201 0
-882 -2202 0
-883 -2203 0
-884 -2204 0
-885 -2205 0
-886 -2206 0
-887 -2207 0
-888 -2208 0
-889 -2209 0
-890 -2210 0
-891 -2211 0
-892 -2212 0
-893 -2213 0
-894 -2214 0
-895 -2215 0
-896 -2216 0
-897 -2217 0
-898 -2218 0
-899 -2219 0
-900 -2220 0
-841 -2221 0
-842 -2222 0
-843 -2223 0
-844 -2224 0
-845 -2225 0
-846 -2226 0
-847 -2227 0
-848 -2228 0
-849 -2229 0
-850 -2230 0
-851 -2231 0
-852 -2232 0
-853 -2233 0
-854 -2234 0
-855 -2235 0
-856 -2236 0
-857 -2237 0
-858 -2238 0
-859 -2239 0
-860 -2240 0
-861 -2241 0
-862 -2242 0
-863 -2243 0
-864 -2244 0
-865 -2245 0
-866 -2246 0
-867 -2247 0
-868 -2248 0
-869 -2249 0
-870 -2250 0
-871 -2251 0
-872 -2252 0
-873 -2253 0
-874 -2254 0
-875 -2255 0
-876 -2256 0
-877 -2257 0
-878 -2258 0
-879 -2259 0
-880 -2260 0
-881 -2261 0
-882 -2262 0
-883 -2263 0
-884 -2264 0
-885 -2265 0
-886 -2266 0
-887 -2267 0
-888 -2268 0
-889 -2269 0
-890 -2270 0
-891 -2271 0
-892 -2272 0
-893 -2273 0
-894 -2274 0
-895 -2275 0
-896 -2276 0
-897 -2277 0
-898 -2278 0
-899 -2279 0
-900 -2280 0
-841 -2821 0
-842 -2822 0
-843 -2823 0
-844 -2824 0
-845 -2825 0
-846 -2826 0
-847 -2827 0
-848 -2828 0
-849 -2829 0
-850 -2830 0
-851 -2831 0
-852 -2832 0
-853 -2833 0
-854 -2834 0
-855 -2835 0
-856 -2836 0
-857 -2837 0
-858 -2838 0
-859 -2839 0
-860 -2840 0
-861 -2841 0
-862 -2842 0
-863 -2843 0
-864 -2844 0
-865 -2845 0
-866 -2846 0
-867 -2847 0
-868 -2848 0
-869 -2849 0
-870 -2850 0
-871 -2851 0
-872 -2852 0
-873 -2853 0
-874 -2854 0
-875 -2855 0
-876 -2856 0
-877 -2857 0
-878 -2858 0
-879 -2859 0
-880 -2860 0
-881 -2861 0
-882 -2862 0
-883 -2863 0
-884 -2864 0
-885 -2865 0
-886 -2866 0
-887 -2867 0
-888 -2868 0
-889 -2869 0
-890 -2870 0
-891 -2871 0
-892 -2872 0
-893 -2873 0
-894 -2874 0
-895 -2875 0
-896 -2876 0
-897 -2877 0
-898 -2878 0
-899 -2879 0
-900 -2880 0
-841 -3361 0
-842 -3362 0
-843 -3363 0
-844 -3364 0
-845 -3365 0
-846 -3366 0
-847 -3367 0
-848 -3368 0
-849 -3369 0
-850 -3370 0
-851 -3371 0
-852 -3372 0
-853 -3373 0
-854 -3374 0
-855 -3375 0
-856 -3376 0
-857 -3377 0
-858 -3378 0
-859 -3379 0
-860 -3380 0
-861 -3381 0
-862 -3382 0
-863 -3383 0
-864 -3384 0
-865 -3385 0
-866 -3386 0
-867 -3387 0
-868 -3388 0
-869 -3389 0
-870 -3390 0
-871 -3391 0
-872 -3392 0
-873 -3393 0
-874 -3394 0
-875 -3395 0
-876 -3396 0
-877 -3397 0
-878 -3398 0
-879 -3399 0
-880 -3400 0
-881 -3401 0
-882 -3402 0
-883 -3403 0
-884 -3404 0
-885 -3405 0
-886 -3406 0
-887 -3407 0
-888 -3408 0
-889 -3409 0
-890 -3410 0
-891 -3411 0
-892 -3412 0
-893 -3413 0
-894 -3414 0
-895 -3415 0
-896 -3416 0
-897 -3417 0
-898 -3418 0
-899 -3419 0
-900 -3420 0
-841 -3481 0
-842 -3482 0
-843 -3483 0
-844 -3484 0
-845 -3485 0
-846 -3486 0
-847 -3487 0
-848 -3488 0
-849 -3489 0
-850 -3490 0
-851 -3491 0
-852 -3492 0
-853 -3493 0
-854 -3494 0
-855 -3495 0
-856 -3496 0
-857 -3497 0
-858 -3498 0
-859 -3499 0
-860 -3500 0
-861 -3501 0
-862 -3502 0
-863 -3503 0
-864 -3504 0
-865 -3505 0
-866 -3506 0
-867 -3507 0
-868 -3508 0
-869 -3509 0
-870 -3510 0
-871 -3511 0
-872 -3512 0
-873 -3513 0
-874 -3514 0
-875 -3515 0
-876 -3516 0
-877 -3517 0
-878 -3518 0
-879 -3519 0
-880 -3520 0
-881 -3521 0
-882 -3522 0
-883 -3523 0
-884 -3524 0
-885 -3525 0
-886 -3526 0
-887 -3527 0
-888 -3528 0
-889 -3529 0
-890 -3530 0
-891 -3531 0
-892 -3532 0
-893 -3533 0
-894 -3534 0
-895 -3535 0
-896 -3536 0
-897 -3537 0
-898 -3538 0
-899 -3539 0
-900 -3540 0
-841 -3901 0
-842 -3902 0
-843 -3903 0
-844 -3904 0
-845 -3905 0
-846 -3906 0
-847 -3907 0
-848 -3908 0
-849 -3909 0
-850 -3910 0
-851 -3911 0
-852 -3912 0
-853 -3913 0
-854 -3914 0
-855 -3915 0
-856 -3916 0
-857 -3917 0
-858 -3918 0
-859 -3919 0
-860 -3920 0
-861 -3921 0
-862 -3922 0
-863 -3923 0
-864 -3924 0
-865 -3925 0
-866 -3926 0
-867 -3927 0
-868 -3928 0
-869 -3929 0
-870 -3930 0
-871 -3931 0
-872 -3932 0
-873 -3933 0
-874 -3934 0
-875 -3935 0
-876 -3936 0
-877 -3937 0
-878 -3938 0
-879 -3939 0
-880 -3940 0
-881 -3941 0
-882 -3942 0
-883 -3943 0
-884 -3944 0
-885 -3945 0
-886 -3946 0
-887 -3947 0
-888 -3948 0
-889 -3949 0
-890 -3950 0
-891 -3951 0
-892 -3952 0
-893 -3953 0
-894 -3954 0
-895 -3955 0
-896 -3956 0
-897 -3957 0
-898 -3958 0
-899 -3959 0
-900 -3960 0
-841 -4021 0
-842 -4022 0
-843 -4023 0
-844 -4024 0
-845 -4025 0
-846 -4026 0
-847 -4027 0
-848 -4028 0
-849 -4029 0
-850 -4030 0
-851 -4031 0
-852 -4032 0
-853 -4033 0
-854 -4034 0
-855 -4035 0
-856 -4036 0
-857 -4037 0
-858 -4038 0
-859 -4039 0
-860 -4040 0
-861 -4041 0
-862 -4042 0
-863 -4043 0
-864 -4044 0
-865 -4045 0
-866 -4046 0
-867 -4047 0
-868 -4048 0
-869 -4049 0
-870 -4050 0
-871 -4051 0
-872 -4052 0
-873 -4053 0
-874 -4054 0
-875 -4055 0
-876 -4056 0
-877 -4057 0
-878 -4058 0
-879 -4059 0
-880 -4060 0
-881 -4061 0
-882 -4062 0
-883 -4063 0
-884 -4064 0
-885 -4065 0
-886 -4066 0
-887 -4067 0
-888 -4068 0
-889 -4069 0
-890 -4070 0
-891 -4071 0
-892 -4072 0
-893 -4073 0
-894 -4074 0
-895 -4075 0
-896 -4076 0
-897 -4077 0
-898 -4078 0
-899 -4079 0
-900 -4080 0
-841 -4261 0
-842 -4262 0
-843 -4263 0
-844 -4264 0
-845 -4265 0
-846 -4266 0
-847 -4267 0
-848 -4268 0
-849 -4269 0
-850 -4270 0
-851 -4271 0
-852 -4272 0
-853 -4273 0
-854 -4274 0
-855 -4275 0
-856 -4276 0
-857 -4277 0
-858 -4278 0
-859 -4279 0
-860 -4280 0
-861 -4281 0
-862 -4282 0
-863 -4283 0
-864 -4284 0
-865 -4285 0
-866 -4286 0
-867 -4287 0
-868 -4288 0
-869 -4289 0
-870 -4290 0
-871 -4291 0
-872 -4292 0
-873 -4293 0
-874 -4294 0
-875 -4295 0
-876 -4296 0
-877 -4297 0
-878 -4298 0
-879 -4299 0
-880 -4300 0
-881 -4301 0
-882 -4302 0
-883 -4303 0
-884 -4304 0
-885 -4305 0
-886 -4306 0
-887 -4307 0
-888 -4308 0
-889 -4309 0
-890 -4310 0
-891 -4311 0
-892 -4312 0
-893 -4313 0
-894 -4314 0
-895 -4315 0
-896 -4316 0
-897 -4317 0
-898 -4318 0
-899 -4319 0
-900 -4320 0
-841 -4501 0
-842 -4502 0
-843 -4503 0
-844 -4504 0
-845 -4505 0
-846 -4506 0
-847 -4507 0
-848 -4508 0
-849 -4509 0
-850 -4510 0
-851 -4511 0
-852 -4512 0
-853 -4513 0
-854 -4514 0
-855 -4515 0
-856 -4516 0
-857 -4517 0
-858 -4518 0
-859 -4519 0
-860 -4520 0
-861 -4521 0
-862 -4522 0
-863 -4523 0
-864 -4524 0
-865 -4525 0
-866 -4526 0
-867 -4527 0
-868 -4528 0
-869 -4529 0
-870 -4530 0
-871 -4531 0
-872 -4532 0
-873 -4533 0
-874 -4534 0
-875 -4535 0
-876 -4536 0
-877 -4537 0
-878 -4538 0
-879 -4539 0
-880 -4540 0
-881 -4541 0
-882 -4542 0
-883 -4543 0
-884 -4544 0
-885 -4545 0
-886 -4546 0
-887 -4547 0
-888 -4548 0
-889 -4549 0
-890 -4550 0
-891 -4551 0
-892 -4552 0
-893 -4553 0
-894 -4554 0
-895 -4555 0
-896 -4556 0
-897 -4557 0
-898 -4558 0
-899 -4559 0
-900 -4560 0
-841 -4561 0
-842 -4562 0
-843 -4563 0
-844 -4564 0
-845 -4565 0
-846 -4566 0
-847 -4567 0
-848 -4568 0
-849 -4569 0
-850 -4570 0
-851 -4571 0
-852 -4572 0
-853 -4573 0
-854 -4574 0
-855 -4575 0
-856 -4576 0
-857 -4577 0
-858 -4578 0
-859 -4579 0
-860 -4580 0
-861 -4581 0
-862 -4582 0
-863 -4583 0
-864 -4584 0
-865 -4585 0
-866 -4586 0
-867 -4587 0
-868 -4588 0
-869 -4589 0
-870 -4590 0
-871 -4591 0
-872 -4592 0
-873 -4593 0
-874 -4594 0
-875 -4595 0
-876 -4596 0
-877 -4597 0
-878 -4598 0
-879 -4599 0
-880 -4600 0
-881 -4601 0
-882 -4602 0
-883 -4603 0
-884 -4604 0
-885 -4605 0
-886 -4606 0
-887 -4607 0
-888 -4608 0
-889 -4609 0
-890 -4610 0
-891 -4611 0
-892 -4612 0
-893 -4613 0
-894 -4614 0
-895 -4615 0
-896 -4616 0
-897 -4617 0
-898 -4618 0
-899 -4619 0
-900 -4620 0
-841 -4681 0
-842 -4682 0
-843 -4683 0
-844 -4684 0
-845 -4685 0
-846 -4686 0
-847 -4687 0
-848 -4688 0
-849 -4689 0
-850 -4690 0
-851 -4691 0
-852 -4692 0
-853 -4693 0
-854 -4694 0
-855 -4695 0
-856 -4696 0
-857 -4697 0
-858 -4698 0
-859 -4699 0
-860 -4700 0
-861 -4701 0
-862 -4702 0
-863 -4703 0
-864 -4704 0
-865 -4705 0
-866 -4706 0
-867 -4707 0
-868 -4708 0
-869 -4709 0
-870 -4710 0
-871 -4711 0
-872 -4712 0
-873 -4713 0
-874 -4714 0
-875 -4715 0
-876 -4716 0
-877 -4717 0
-878 -4718 0
-879 -4719 0
-880 -4720 0
-881 -4721 0
-882 -4722 0
-883 -4723 0
-884 -4724 0
-885 -4725 0
-886 -4726 0
-887 -4727 0
-888 -4728 0
-889 -4729 0
-890 -4730 0
-891 -4731 0
-892 -4732 0
-893 -4733 0
-894 -4734 0
-895 -4735 0
-896 -4736 0
-897 -4737 0
-898 -4738 0
-899 -4739 0
-900 -4740 0
-901 -301 0
-902 -302 0
-903 -303 0
-904 -304 0
-905 -305 0
-906 -306 0
-907 -307 0
-908 -308 0
-909 -309 0
-910 -310 0
-911 -311 0
-912 -312 0
-913 -313 0
-914 -314 0
-915 -315 0
-916 -316 0
-917 -317 0
-918 -318 0
-919 -319 0
-920 -320 0
-921 -321 0
-922 -322 0
-923 -323 0
-924 -324 0
-925 -325 0
-926 -326 0
-927 -327 0
-928 -328 0
-929 -329 0
-930 -330 0
-931 -331 0
-932 -332 0
-933 -333 0
-934 -334 0
-935 -335 0
-936 -336 0
-937 -337 0
-938 -338 0
-939 -339 0
-940 -340 0
-941 -341 0
-942 -342 0
-943 -343 0
-944 -344 0
-945 -345 0
-946 -346 0
-947 -347 0
-948 -348 0
-949 -349 0
-950 -350 0
-951 -351 0
-952 -352 0
-953 -353 0
-954 -354 0
-955 -355 0
-956 -356 0
-957 -357 0
-958 -358 0
-959 -359 0
-960 -360 0
-901 -2041 0
-902 -2042 0
-903 -2043 0
-904 -2044 0
-905 -2045 0
-906 -2046 0
-907 -2047 0
-908 -2048 0
-909 -2049 0
-910 -2050 0
-911 -2051 0
-912 -2052 0
-913 -2053 0
-914 -2054 0
-915 -2055 0
-916 -2056 0
-917 -2057 0
-918 -2058 0
-919 -2059 0
-920 -2060 0
-921 -2061 0
-922 -2062 0
-923 -2063 0
-924 -2064 0
-925 -2065 0
-926 -2066 0
-927 -2067 0
-928 -2068 0
-929 -2069 0
-930 -2070 0
-931 -2071 0
-932 -2072 0
-933 -2073 0
-934 -2074 0
-935 -2075 0
-936 -2076 0
-937 -2077 0
-938 -2078 0
-939 -2079 0
-940 -2080 0
-941 -2081 0
-942 -2082 0
-943 -2083 0
-944 -2084 0
-945 -2085 0
-946 -2086 0
-947 -2087 0
-948 -2088 0
-949 -2089 0
-950 -2090 0
-951 -2091 0
-952 -2092 0
-953 -2093 0
-954 -2094 0
-955 -2095 0
-956 -2096 0
-957 -2097 0
-958 -2098 0
-959 -2099 0
-960 -2100 0
-901 -2821 0
-902 -2822 0
-903 -2823 0
-904 -2824 0
-905 -2825 0
-906 -2826 0
-907 -2827 0
-908 -2828 0
-909 -2829 0
-910 -2830 0
-911 -2831 0
-912 -2832 0
-913 -2833 0
-914 -2834 0
-915 -2835 0
-916 -2836 0
-917 -2837 0
-918 -2838 0
-919 -2839 0
-920 -2840 0
-921 -2841 0
-922 -2842 0
-923 -2843 0
-924 -2844 0
-925 -2845 0
-926 -2846 0
-927 -2847 0
-928 -2848 0
-929 -2849 0
-930 -2850 0
-931 -2851 0
-932 -2852 0
-933 -2853 0
-934 -2854 0
-935 -2855 0
-936 -2856 0
-937 -2857 0
-938 -2858 0
-939 -2859 0
-940 -2860 0
-941 -2861 0
-942 -2862 0
-943 -2863 0
-944 -2864 0
-945 -2865 0
-946 -2866 0
-947 -2867 0
-948 -2868 0
-949 -2869 0
-950 -2870 0
-951 -2871 0
-952 -2872 0
-953 -2873 0
-954 -2874 0
-955 -2875 0
-956 -2876 0
-957 -2877 0
-958 -2878 0
-959 -2879 0
-960 -2880 0
-901 -3241 0
-902 -3242 0
-903 -3243 0
-904 -3244 0
-905 -3245 0
-906 -3246 0
-907 -3247 0
-908 -3248 0
-909 -3249 0
-910 -3250 0
-911 -3251 0
-912 -3252 0
-913 -3253 0
-914 -3254 0
-915 -3255 0
-916 -3256 0
-917 -3257 0
-918 -3258 0
-919 -3259 0
-920 -3260 0
-921 -3261 0
-922 -3262 0
-923 -3263 0
-924 -3264 0
-925 -3265 0
-926 -3266 0
-927 -3267 0
-928 -3268 0
-929 -3269 0
-930 -3270 0
-931 -3271 0
-932 -3272 0
-933 -3273 0
-934 -3274 0
-935 -3275 0
-936 -3276 0
-937 -3277 0
-938 -3278 0
-939 -3279 0
-940 -3280 0
-941 -3281 0
-942 -3282 0
-943 -3283 0
-944 -3284 0
-945 -3285 0
-946 -3286 0
-947 -3287 0
-948 -3288 0
-949 -3289 0
-950 -3290 0
-951 -3291 0
-952 -3292 0
-953 -3293 0
-954 -3294 0
-955 -3295 0
-956 -3296 0
-957 -3297 0
-958 -3298 0
-959 -3299 0
-960 -3300 0
-901 -3361 0
-902 -3362 0
-903 -3363 0
-904 -3364 0
-905 -3365 0
-906 -3366 0
-907 -3367 0
-908 -3368 0
-909 -3369 0
-910 -3370 0
-911 -3371 0
-912 -3372 0
-913 -3373 0
-914 -3374 0
-915 -3375 0
-916 -3376 0
-917 -3377 0
-918 -3378 0
-919 -3379 0
-920 -3380 0
-921 -3381 0
-922 -3382 0
-923 -3383 0
-924 -3384 0
-925 -3385 0
-926 -3386 0
-927 -3387 0
-928 -3388 0
-929 -3389 0
-930 -3390 0
-931 -3391 0
-932 -3392 0
-933 -3393 0
-934 -3394 0
-935 -3395 0
-936 -3396 0
-937 -3397 0
-938 -3398 0
-939 -3399 0
-940 -3400 0
-941 -3401 0
-942 -3402 0
-943 -3403 0
-944 -3404 0
-945 -3405 0
-946 -3406 0
-947 -3407 0
-948 -3408 0
-949 -3409 0
-950 -3410 0
-951 -3411 0
-952 -3412 0
-953 -3413 0
-954 -3414 0
-955 -3415 0
-956 -3416 0
-957 -3417 0
-958 -3418 0
-959 -3419 0
-960 -3420 0
-901 -3421 0
-902 -3422 0
-903 -3423 0
-904 -3424 0
-905 -3425 0
-906 -3426 0
-907 -3427 0
-908 -3428 0
-909 -3429 0
-910 -3430 0
-911 -3431 0
-912 -3432 0
-913 -3433 0
-914 -3434 0
-915 -3435 0
-916 -3436 0
-917 -3437 0
-918 -3438 0
-919 -3439 0
-920 -3440 0
-921 -3441 0
-922 -3442 0
-923 -3443 0
-924 -3444 0
-925 -3445 0
-926 -3446 0
-927 -3447 0
-928 -3448 0
-929 -3449 0
-930 -3450 0
-931 -3451 0
-932 -3452 0
-933 -3453 0
-934 -3454 0
-935 -3455 0
-936 -3456 0
-937 -3457 0
-938 -3458 0
-939 -3459 0
-940 -3460 0
-941 -3461 0
-942 -3462 0
-943 -3463 0
-944 -3464 0
-945 -3465 0
-946 -3466 0
-947 -3467 0
-948 -3468 0
-949 -3469 0
-950 -3470 0
-951 -3471 0
-952 -3472 0
-953 -3473 0
-954 -3474 0
-955 -3475 0
-956 -3476 0
-957 -3477 0
-958 -3478 0
-959 -3479 0
-960 -3480 0
-901 -4261 0
-902 -4262 0
-903 -4263 0
-904 -4264 0
-905 -4265 0
-906 -4266 0
-907 -4267 0
-908 -4268 0
-909 -4269 0
-910 -4270 0
-911 -4271 0
-912 -4272 0
-913 -4273 0
-914 -4274 0
-915 -4275 0
-916 -4276 0
-917 -4277 0
-918 -4278 0
-919 -4279 0
-920 -4280 0
-921 -4281 0
-922 -4282 0
-923 -4283 0
-924 -4284 0
-925 -4285 0
-926 -4286 0
-927 -4287 0
-928 -4288 0
-929 -4289 0
-930 -4290 0
-931 -4291 0
-932 -4292 0
-933 -4293 0
-934 -4294 0
-935 -4295 0
-936 -4296 0
-937 -4297 0
-938 -4298 0
-939 -4299 0
-940 -4300 0
-941 -4301 0
-942 -4302 0
-943 -4303 0
-944 -4304 0
-945 -4305 0
-946 -4306 0
-947 -4307 0
-948 -4308 0
-949 -4309 0
-950 -4310 0
-951 -4311 0
-952 -4312 0
-953 -4313 0
-954 -4314 0
-955 -4315 0
-956 -4316 0
-957 -4317 0
-958 -4318 0
-959 -4319 0
-960 -4320 0
-961 -241 0
-962 -242 0
-963 -243 0
-964 -244 0
-965 -245 0
-966 -246 0
-967 -247 0
-968 -248 0
-969 -249 0
-970 -250 0
-971 -251 0
-972 -252 0
-973 -253 0
-974 -254 0
-975 -255 0
-976 -256 0
-977 -257 0
-978 -258 0
-979 -259 0
-980 -260 0
-981 -261 0
-982 -262 0
-983 -263 0
-984 -264 0
-985 -265 0
-986 -266 0
-987 -267 0
-988 -268 0
-989 -269 0
-990 -270 0
-991 -271 0
-992 -272 0
-993 -273 0
-994 -274 0
-995 -275 0
-996 -276 0
-997 -277 0
-998 -278 0
-999 -279 0
-1000 -280 0
-1001 -281 0
-1002 -282 0
-1003 -283 0
-1004 -284 0
-1005 -285 0
-1006 -286 0
-1007 -287 0
-1008 -288 0
-1009 -289 0
-1010 -290 0
-1011 -291 0
-1012 -292 0
-1013 -293 0
-1014 -294 0
-1015 -295 0
-1016 -296 0
-1017 -297 0
-1018 -298 0
-1019 -299 0
-1020 -300 0
-961 -541 0
-962 -542 0
-963 -543 0
-964 -544 0
-965 -545 0
-966 -546 0
-967 -547 0
-968 -548 0
-969 -549 0
-970 -550 0
-971 -551 0
-972 -552 0
-973 -553 0
-974 -554 0
-975 -555 0
-976 -556 0
-977 -557 0
-978 -558 0
-979 -559 0
-980 -560 0
-981 -561 0
-982 -562 0
-983 -563 0
-984 -564 0
-985 -565 0
-986 -566 0
-987 -567 0
-988 -568 0
-989 -569 0
-990 -570 0
-991 -571 0
-992 -572 0
-993 -573 0
-994 -574 0
-995 -575 0
-996 -576 0
-997 -577 0
-998 -578 0
-999 -579 0
-1000 -580 0
-1001 -581 0
-1002 -582 0
-1003 -583 0
-1004 -584 0
-1005 -585 0
-1006 -586 0
-1007 -587 0
-1008 -588 0
-1009 -589 0
-1010 -590 0
-1011 -591 0
-1012 -592 0
-1013 -593 0
-1014 -594 0
-1015 -595 0
-1016 -596 0
-1017 -597 0
-1018 -598 0
-1019 -599 0
-1020 -600 0
-961 -1141 0
-962 -1142 0
-963 -1143 0
-964 -1144 0
-965 -1145 0
-966 -1146 0
-967 -1147 0
-968 -1148 0
-969 -1149 0
-970 -1150 0
-971 -1151 0
-972 -1152 0
-973 -1153 0
-974 -1154 0
-975 -1155 0
-976 -1156 0
-977 -1157 0
-978 -1158 0
-979 -1159 0
-980 -1160 0
-981 -1161 0
-982 -1162 0
-983 -1163 0
-984 -1164 0
-985 -1165 0
-986 -1166 0
-987 -1167 0
-988 -1168 0
-989 -1169 0
-990 -1170 0
-991 -1171 0
-992 -1172 0
-993 -1173 0
-994 -1174 0
-995 -1175 0
-996 -1176 0
-997 -1177 0
-998 -1178 0
-999 -1179 0
-1000 -1180 0
-1001 -1181 0
-1002 -1182 0
-1003 -1183 0
-1004 -1184 0
-1005 -1185 0
-1006 -1186 0
-1007 -1187 0
-1008 -1188 0
-1009 -1189 0
-1010 -1190 0
-1011 -1191 0
-1012 -1192 0
-1013 -1193 0
-1014 -1194 0
-1015 -1195 0
-1016 -1196 0
-1017 -1197 0
-1018 -1198 0
-1019 -1199 0
-1020 -1200 0
-961 -1261 0
-962 -1262 0
-963 -1263 0
-964 -1264 0
-965 -1265 0
-966 -1266 0
-967 -1267 0
-968 -1268 0
-969 -1269 0
-970 -1270 0
-971 -1271 0
-972 -1272 0
-973 -1273 0
-974 -1274 0
-975 -1275 0
-976 -1276 0
-977 -1277 0
-978 -1278 0
-979 -1279 0
-980 -1280 0
-981 -1281 0
-982 -1282 0
-983 -1283 0
-984 -1284 0
-985 -1285 0
-986 -1286 0
-987 -1287 0
-988 -1288 0
-989 -1289 0
-990 -1290 0
-991 -1291 0
-992 -1292 0
-993 -1293 0
-994 -1294 0
-995 -1295 0
-996 -1296 0
-997 -1297 0
-998 -1298 0
-999 -1299 0
-1000 -1300 0
-1001 -1301 0
-1002 -1302 0
-1003 -1303 0
-1004 -1304 0
-1005 -1305 0
-1006 -1306 0
-1007 -1307 0
-1008 -1308 0
-1009 -1309 0
-1010 -1310 0
-1011 -1311 0
-1012 -1312 0
-1013 -1313 0
-1014 -1314 0
-1015 -1315 0
-1016 -1316 0
-1017 -1317 0
-1018 -1318 0
-1019 -1319 0
-1020 -1320 0
-961 -2161 0
-962 -2162 0
-963 -2163 0
-964 -2164 0
-965 -2165 0
-966 -2166 0
-967 -2167 0
-968 -2168 0
-969 -2169 0
-970 -2170 0
-971 -2171 0
-972 -2172 0
-973 -2173 0
-974 -2174 0
-975 -2175 0
-976 -2176 0
-977 -2177 0
-978 -2178 0
-979 -2179 0
-980 -2180 0
-981 -2181 0
-982 -2182 0
-983 -2183 0
-984 -2184 0
-985 -2185 0
-986 -2186 0
-987 -2187 0
-988 -2188 0
-989 -2189 0
-990 -2190 0
-991 -2191 0
-992 -2192 0
-993 -2193 0
-994 -2194 0
-995 -2195 0
-996 -2196 0
-997 -2197 0
-998 -2198 0
-999 -2199 0
-1000 -2200 0
-1001 -2201 0
-1002 -2202 0
-1003 -2203 0
-1004 -2204 0
-1005 -2205 0
-1006 -2206 0
-1007 -2207 0
-1008 -2208 0
-1009 -2209 0
-1010 -2210 0
-1011 -2211 0
-1012 -2212 0
-1013 -2213 0
-1014 -2214 0
-1015 -2215 0
-1016 -2216 0
-1017 -2217 0
-1018 -2218 0
-1019 -2219 0
-1020 -2220 0
-961 -2281 0
-962 -2282 0
-963 -2283 0
-964 -2284 0
-965 -2285 0
-966 -2286 0
-967 -2287 0
-968 -2288 0
-969 -2289 0
-970 -2290 0
-971 -2291 0
-972 -2292 0
-973 -2293 0
-974 -2294 0
-975 -2295 0
-976 -2296 0
-977 -2297 0
-978 -2298 0
-979 -2299 0
-980 -2300 0
-981 -2301 0
-982 -2302 0
-983 -2303 0
-984 -2304 0
-985 -2305 0
-986 -2306 0
-987 -2307 0
-988 -2308 0
-989 -2309 0
-990 -2310 0
-991 -2311 0
-992 -2312 0
-993 -2313 0
-994 -2314 0
-995 -2315 0
-996 -2316 0
-997 -2317 0
-998 -2318 0
-999 -2319 0
-1000 -2320 0
-1001 -2321 0
-1002 -2322 0
-1003 -2323 0
-1004 -2324 0
-1005 -2325 0
-1006 -2326 0
-1007 -2327 0
-1008 -2328 0
-1009 -2329 0
-1010 -2330 0
-1011 -2331 0
-1012 -2332 0
-1013 -2333 0
-1014 -2334 0
-1015 -2335 0
-1016 -2336 0
-1017 -2337 0
-1018 -2338 0
-1019 -2339 0
-1020 -2340 0
-1021 -2581 0
-1022 -2582 0
-1023 -2583 0
-1024 -2584 0
-1025 -2585 0
-1026 -2586 0
-1027 -2587 0
-1028 -2588 0
-1029 -2589 0
-1030 -2590 0
-1031 -2591 0
-1032 -2592 0
-1033 -2593 0
-1034 -2594 0
-1035 -2595 0
-1036 -2596 0
-1037 -2597 0
-1038 -2598 0
-1039 -2599 0
-1040 -2600 0
-1041 -2601 0
-1042 -2602 0
-1043 -2603 0
-1044 -2604 0
-1045 -2605 0
-1046 -2606 0
-1047 -2607 0
-1048 -2608 0
-1049 -2609 0
-1050 -2610 0
-1051 -2611 0
-1052 -2612 0
-1053 -2613 0
-1054 -2614 0
-1055 -2615 0
-1056 -2616 0
-1057 -2617 0
-1058 -2618 0
-1059 -2619 0
-1060 -2620 0
-1061 -2621 0
-1062 -2622 0
-1063 -2623 0
-1064 -2624 0
-1065 -2625 0
-1066 -2626 0
-1067 -2627 0
-1068 -2628 0
-1069 -2629 0
-1070 -2630 0
-1071 -2631 0
-1072 -2632 0
-1073 -2633 0
-1074 -2634 0
-1075 -2635 0
-1076 -2636 0
-1077 -2637 0
-1078 -2638 0
-1079 -2639 0
-1080 -2640 0
-1021 -2821 0
-1022 -2822 0
-1023 -2823 0
-1024 -2824 0
-1025 -2825 0
-1026 -2826 0
-1027 -2827 0
-1028 -2828 0
-1029 -2829 0
-1030 -2830 0
-1031 -2831 0
-1032 -2832 0
-1033 -2833 0
-1034 -2834 0
-1035 -2835 0
-1036 -2836 0
-1037 -2837 0
-1038 -2838 0
-1039 -2839 0
-1040 -2840 0
-1041 -2841 0
-1042 -2842 0
-1043 -2843 0
-1044 -2844 0
-1045 -2845 0
-1046 -2846 0
-1047 -2847 0
-1048 -2848 0
-1049 -2849 0
-1050 -2850 0
-1051 -2851 0
-1052 -2852 0
-1053 -2853 0
-1054 -2854 0
-1055 -2855 0
-1056 -2856 0
-1057 -2857 0
-1058 -2858 0
-1059 -2859 0
-1060 -2860 0
-1061 -2861 0
-1062 -2862 0
-1063 -2863 0
-1064 -2864 0
-1065 -2865 0
-1066 -2866 0
-1067 -2867 0
-1068 -2868 0
-1069 -2869 0
-1070 -2870 0
-1071 -2871 0
-1072 -2872 0
-1073 -2873 0
-1074 -2874 0
-1075 -2875 0
-1076 -2876 0
-1077 -2877 0
-1078 -2878 0
-1079 -2879 0
-1080 -2880 0
-1021 -3361 0
-1022 -3362 0
-1023 -3363 0
-1024 -3364 0
-1025 -3365 0
-1026 -3366 0
-1027 -3367 0
-1028 -3368 0
-1029 -3369 0
-1030 -3370 0
-1031 -3371 0
-1032 -3372 0
-1033 -3373 0
-1034 -3374 0
-1035 -3375 0
-1036 -3376 0
-1037 -3377 0
-1038 -3378 0
-1039 -3379 0
-1040 -3380 0
-1041 -3381 0
-1042 -3382 0
-1043 -3383 0
-1044 -3384 0
-1045 -3385 0
-1046 -3386 0
-1047 -3387 0
-1048 -3388 0
-1049 -3389 0
-1050 -3390 0
-1051 -3391 0
-1052 -3392 0
-1053 -3393 0
-1054 -3394 0
-1055 -3395 0
-1056 -3396 0
-1057 -3397 0
-1058 -3398 0
-1059 -3399 0
-1060 -3400 0
-1061 -3401 0
-1062 -3402 0
-1063 -3403 0
-1064 -3404 0
-1065 -3405 0
-1066 -3406 0
-1067 -3407 0
-1068 -3408 0
-1069 -3409 0
-1070 -3410 0
-1071 -3411 0
-1072 -3412 0
-1073 -3413 0
-1074 -3414 0
-1075 -3415 0
-1076 -3416 0
-1077 -3417 0
-1078 -3418 0
-1079 -3419 0
-1080 -3420 0
-1081 -181 0
-1082 -182 0
-1083 -183 0
-1084 -184 0
-1085 -185 0
-1086 -186 0
-1087 -187 0
-1088 -188 0
-1089 -189 0
-1090 -190 0
-1091 -191 0
-1092 -192 0
-1093 -193 0
-1094 -194 0
-1095 -195 0
-1096 -196 0
-1097 -197 0
-1098 -198 0
-1099 -199 0
-1100 -200 0
-1101 -201 0
-1102 -202 0
-1103 -203 0
-1104 -204 0
-1105 -205 0
-1106 -206 0
-1107 -207 0
-1108 -208 0
-1109 -209 0
-1110 -210 0
-1111 -211 0
-1112 -212 0
-1113 -213 0
-1114 -214 0
-1115 -215 0
-1116 -216 0
-1117 -217 0
-1118 -218 0
-1119 -219 0
-1120 -220 0
-1121 -221 0
-1122 -222 0
-1123 -223 0
-1124 -224 0
-1125 -225 0
-1126 -226 0
-1127 -227 0
-1128 -228 0
-1129 -229 0
-1130 -230 0
-1131 -231 0
-1132 -232 0
-1133 -233 0
-1134 -234 0
-1135 -235 0
-1136 -236 0
-1137 -237 0
-1138 -238 0
-1139 -239 0
-1140 -240 0
-1081 -361 0
-1082 -362 0
-1083 -363 0
-1084 -364 0
-1085 -365 0
-1086 -366 0
-1087 -367 0
-1088 -368 0
-1089 -369 0
-1090 -370 0
-1091 -371 0
-1092 -372 0
-1093 -373 0
-1094 -374 0
-1095 -375 0
-1096 -376 0
-1097 -377 0
-1098 -378 0
-1099 -379 0
-1100 -380 0
-1101 -381 0
-1102 -382 0
-1103 -383 0
-1104 -384 0
-1105 -385 0
-1106 -386 0
-1107 -387 0
-1108 -388 0
-1109 -389 0
-1110 -390 0
-1111 -391 0
-1112 -392 0
-1113 -393 0
-1114 -394 0
-1115 -395 0
-1116 -396 0
-1117 -397 0
-1118 -398 0
-1119 -399 0
-1120 -400 0
-1121 -401 0
-1122 -402 0
-1123 -403 0
-1124 -404 0
-1125 -405 0
-1126 -406 0
-1127 -407 0
-1128 -408 0
-1129 -409 0
-1130 -410 0
-1131 -411 0
-1132 -412 0
-1133 -413 0
-1134 -414 0
-1135 -415 0
-1136 -416 0
-1137 -417 0
-1138 -418 0
-1139 -419 0
-1140 -420 0
-1081 -481 0
-1082 -482 0
-1083 -483 0
-1084 -484 0
-1085 -485 0
-1086 -486 0
-1087 -487 0
-1088 -488 0
-1089 -489 0
-1090 -490 0
-1091 -491 0
-1092 -492 0
-1093 -493 0
-1094 -494 0
-1095 -495 0
-1096 -496 0
-1097 -497 0
-1098 -498 0
-1099 -499 0
-1100 -500 0
-1101 -501 0
-1102 -502 0
-1103 -503 0
-1104 -504 0
-1105 -505 0
-1106 -506 0
-1107 -507 0
-1108 -508 0
-1109 -509 0
-1110 -510 0
-1111 -511 0
-1112 -512 0
-1113 -513 0
-1114 -514 0
-1115 -515 0
-1116 -516 0
-1117 -517 0
-1118 -518 0
-1119 -519 0
-1120 -520 0
-1121 -521 0
-1122 -522 0
-1123 -523 0
-1124 -524 0
-1125 -525 0
-1126 -526 0
-1127 -527 0
-1128 -528 0
-1129 -529 0
-1130 -530 0
-1131 -531 0
-1132 -532 0
-1133 -533 0
-1134 -534 0
-1135 -535 0
-1136 -536 0
-1137 -537 0
-1138 -538 0
-1139 -539 0
-1140 -540 0
-1081 -841 0
-1082 -842 0
-1083 -843 0
-1084 -844 0
-1085 -845 0
-1086 -846 0
-1087 -847 0
-1088 -848 0
-1089 -849 0
-1090 -850 0
-1091 -851 0
-1092 -852 0
-1093 -853 0
-1094 -854 0
-1095 -855 0
-1096 -856 0
-1097 -857 0
-1098 -858 0
-1099 -859 0
-1100 -860 0
-1101 -861 0
-1102 -862 0
-1103 -863 0
-1104 -864 0
-1105 -865 0
-1106 -866 0
-1107 -867 0
-1108 -868 0
-1109 -869 0
-1110 -870 0
-1111 -871 0
-1112 -872 0
-1113 -873 0
-1114 -874 0
-1115 -875 0
-1116 -876 0
-1117 -877 0
-1118 -878 0
-1119 -879 0
-1120 -880 0
-1121 -881 0
-1122 -882 0
-1123 -883 0
-1124 -884 0
-1125 -885 0
-1126 -886 0
-1127 -887 0
-1128 -888 0
-1129 -889 0
-1130 -890 0
-1131 -891 0
-1132 -892 0
-1133 -893 0
-1134 -894 0
-1135 -895 0
-1136 -896 0
-1137 -897 0
-1138 -898 0
-1139 -899 0
-1140 -900 0
-1081 -1981 0
-1082 -1982 0
-1083 -1983 0
-1084 -1984 0
-1085 -1985 0
-1086 -1986 0
-1087 -1987 0
-1088 -1988 0
-1089 -1989 0
-1090 -1990 0
-1091 -1991 0
-1092 -1992 0
-1093 -1993 0
-1094 -1994 0
-1095 -1995 0
-1096 -1996 0
-1097 -1997 0
-1098 -1998 0
-1099 -1999 0
-1100 -2000 0
-1101 -2001 0
-1102 -2002 0
-1103 -2003 0
-1104 -2004 0
-1105 -2005 0
-1106 -2006 0
-1107 -2007 0
-1108 -2008 0
-1109 -2009 0
-1110 -2010 0
-1111 -2011 0
-1112 -2012 0
-1113 -2013 0
-1114 -2014 0
-1115 -2015 0
-1116 -2016 0
-1117 -2017 0
-1118 -2018 0
-1119 -2019 0
-1120 -2020 0
-1121 -2021 0
-1122 -2022 0
-1123 -2023 0
-1124 -2024 0
-1125 -2025 0
-1126 -2026 0
-1127 -2027 0
-1128 -2028 0
-1129 -2029 0
-1130 -2030 0
-1131 -2031 0
-1132 -2032 0
-1133 -2033 0
-1134 -2034 0
-1135 -2035 0
-1136 -2036 0
-1137 -2037 0
-1138 -2038 0
-1139 -2039 0
-1140 -2040 0
-1081 -2221 0
-1082 -2222 0
-1083 -2223 0
-1084 -2224 0
-1085 -2225 0
-1086 -2226 0
-1087 -2227 0
-1088 -2228 0
-1089 -2229 0
-1090 -2230 0
-1091 -2231 0
-1092 -2232 0
-1093 -2233 0
-1094 -2234 0
-1095 -2235 0
-1096 -2236 0
-1097 -2237 0
-1098 -2238 0
-1099 -2239 0
-1100 -2240 0
-1101 -2241 0
-1102 -2242 0
-1103 -2243 0
-1104 -2244 0
-1105 -2245 0
-1106 -2246 0
-1107 -2247 0
-1108 -2248 0
-1109 -2249 0
-1110 -2250 0
-1111 -2251 0
-1112 -2252 0
-1113 -2253 0
-1114 -2254 0
-1115 -2255 0
-1116 -2256 0
-1117 -2257 0
-1118 -2258 0
-1119 -2259 0
-1120 -2260 0
-1121 -2261 0
-1122 -2262 0
-1123 -2263 0
-1124 -2264 0
-1125 -2265 0
-1126 -2266 0
-1127 -2267 0
-1128 -2268 0
-1129 -2269 0
-1130 -2270 0
-1131 -2271 0
-1132 -2272 0
-1133 -2273 0
-1134 -2274 0
-1135 -2275 0
-1136 -2276 0
-1137 -2277 0
-1138 -2278 0
-1139 -2279 0
-1140 -2280 0
-1081 -2761 0
-1082 -2762 0
-1083 -2763 0
-1084 -2764 0
-1085 -2765 0
-1086 -2766 0
-1087 -2767 0
-1088 -2768 0
-1089 -2769 0
-1090 -2770 0
-1091 -2771 0
-1092 -2772 0
-1093 -2773 0
-1094 -2774 0
-1095 -2775 0
-1096 -2776 0
-1097 -2777 0
-1098 -2778 0
-1099 -2779 0
-1100 -2780 0
-1101 -2781 0
-1102 -2782 0
-1103 -2783 0
-1104 -2784 0
-1105 -2785 0
-1106 -2786 0
-1107 -2787 0
-1108 -2788 0
-1109 -2789 0
-1110 -2790 0
-1111 -2791 0
-1112 -2792 0
-1113 -2793 0
-1114 -2794 0
-1115 -2795 0
-1116 -2796 0
-1117 -2797 0
-1118 -2798 0
-1119 -2799 0
-1120 -2800 0
-1121 -2801 0
-1122 -2802 0
-1123 -2803 0
-1124 -2804 0
-1125 -2805 0
-1126 -2806 0
-1127 -2807 0
-1128 -2808 0
-1129 -2809 0
-1130 -2810 0
-1131 -2811 0
-1132 -2812 0
-1133 -2813 0
-1134 -2814 0
-1135 -2815 0
-1136 -2816 0
-1137 -2817 0
-1138 -2818 0
-1139 -2819 0
-1140 -2820 0
-1081 -2941 0
-1082 -2942 0
-1083 -2943 0
-1084 -2944 0
-1085 -2945 0
-1086 -2946 0
-1087 -2947 0
-1088 -2948 0
-1089 -2949 0
-1090 -2950 0
-1091 -2951 0
-1092 -2952 0
-1093 -2953 0
-1094 -2954 0
-1095 -2955 0
-1096 -2956 0
-1097 -2957 0
-1098 -2958 0
-1099 -2959 0
-1100 -2960 0
-1101 -2961 0
-1102 -2962 0
-1103 -2963 0
-1104 -2964 0
-1105 -2965 0
-1106 -2966 0
-1107 -2967 0
-1108 -2968 0
-1109 -2969 0
-1110 -2970 0
-1111 -2971 0
-1112 -2972 0
-1113 -2973 0
-1114 -2974 0
-1115 -2975 0
-1116 -2976 0
-1117 -2977 0
-1118 -2978 0
-1119 -2979 0
-1120 -2980 0
-1121 -2981 0
-1122 -2982 0
-1123 -2983 0
-1124 -2984 0
-1125 -2985 0
-1126 -2986 0
-1127 -2987 0
-1128 -2988 0
-1129 -2989 0
-1130 -2990 0
-1131 -2991 0
-1132 -2992 0
-1133 -2993 0
-1134 -2994 0
-1135 -2995 0
-1136 -2996 0
-1137 -2997 0
-1138 -2998 0
-1139 -2999 0
-1140 -3000 0
-1081 -3901 0
-1082 -3902 0
-1083 -3903 0
-1084 -3904 0
-1085 -3905 0
-1086 -3906 0
-1087 -3907 0
-1088 -3908 0
-1089 -3909 0
-1090 -3910 0
-1091 -3911 0
-1092 -3912 0
-1093 -3913 0
-1094 -3914 0
-1095 -3915 0
-1096 -3916 0
-1097 -3917 0
-1098 -3918 0
-1099 -3919 0
-1100 -3920 0
-1101 -3921 0
-1102 -3922 0
-1103 -3923 0
-1104 -3924 0
-1105 -3925 0
-1106 -3926 0
-1107 -3927 0
-1108 -3928 0
-1109 -3929 0
-1110 -3930 0
-1111 -3931 0
-1112 -3932 0
-1113 -3933 0
-1114 -3934 0
-1115 -3935 0
-1116 -3936 0
-1117 -3937 0
-1118 -3938 0
-1119 -3939 0
-1120 -3940 0
-1121 -3941 0
-1122 -3942 0
-1123 -3943 0
-1124 -3944 0
-1125 -3945 0
-1126 -3946 0
-1127 -3947 0
-1128 -3948 0
-1129 -3949 0
-1130 -3950 0
-1131 -3951 0
-1132 -3952 0
-1133 -3953 0
-1134 -3954 0
-1135 -3955 0
-1136 -3956 0
-1137 -3957 0
-1138 -3958 0
-1139 -3959 0
-1140 -3960 0
-1081 -4021 0
-1082 -4022 0
-1083 -4023 0
-1084 -4024 0
-1085 -4025 0
-1086 -4026 0
-1087 -4027 0
-1088 -4028 0
-1089 -4029 0
-1090 -4030 0
-1091 -4031 0
-1092 -4032 0
-1093 -4033 0
-1094 -4034 0
-1095 -4035 0
-1096 -4036 0
-1097 -4037 0
-1098 -4038 0
-1099 -4039 0
-1100 -4040 0
-1101 -4041 0
-1102 -4042 0
-1103 -4043 0
-1104 -4044 0
-1105 -4045 0
-1106 -4046 0
-1107 -4047 0
-1108 -4048 0
-1109 -4049 0
-1110 -4050 0
-1111 -4051 0
-1112 -4052 0
-1113 -4053 0
-1114 -4054 0
-1115 -4055 0
-1116 -4056 0
-1117 -4057 0
-1118 -4058 0
-1119 -4059 0
-1120 -4060 0
-1121 -4061 0
-1122 -4062 0
-1123 -4063 0
-1124 -4064 0
-1125 -4065 0
-1126 -4066 0
-1127 -4067 0
-1128 -4068 0
-1129 -4069 0
-1130 -4070 0
-1131 -4071 0
-1132 -4072 0
-1133 -4073 0
-1134 -4074 0
-1135 -4075 0
-1136 -4076 0
-1137 -4077 0
-1138 -4078 0
-1139 -4079 0
-1140 -4080 0
-1081 -4261 0
-1082 -4262 0
-1083 -4263 0
-1084 -4264 0
-1085 -4265 0
-1086 -4266 0
-1087 -4267 0
-1088 -4268 0
-1089 -4269 0
-1090 -4270 0
-1091 -4271 0
-1092 -4272 0
-1093 -4273 0
-1094 -4274 0
-1095 -4275 0
-1096 -4276 0
-1097 -4277 0
-1098 -4278 0
-1099 -4279 0
-1100 -4280 0
-1101 -4281 0
-1102 -4282 0
-1103 -4283 0
-1104 -4284 0
-1105 -4285 0
-1106 -4286 0
-1107 -4287 0
-1108 -4288 0
-1109 -4289 0
-1110 -4290 0
-1111 -4291 0
-1112 -4292 0
-1113 -4293 0
-1114 -4294 0
-1115 -4295 0
-1116 -4296 0
-1117 -4297 0
-1118 -4298 0
-1119 -4299 0
-1120 -4300 0
-1121 -4301 0
-1122 -4302 0
-1123 -4303 0
-1124 -4304 0
-1125 -4305 0
-1126 -4306 0
-1127 -4307 0
-1128 -4308 0
-1129 -4309 0
-1130 -4310 0
-1131 -4311 0
-1132 -4312 0
-1133 -4313 0
-1134 -4314 0
-1135 -4315 0
-1136 -4316 0
-1137 -4317 0
-1138 -4318 0
-1139 -4319 0
-1140 -4320 0
-1081 -4681 0
-1082 -4682 0
-1083 -4683 0
-1084 -4684 0
-1085 -4685 0
-1086 -4686 0
-1087 -4687 0
-1088 -4688 0
-1089 -4689 0
-1090 -4690 0
-1091 -4691 0
-1092 -4692 0
-1093 -4693 0
-1094 -4694 0
-1095 -4695 0
-1096 -4696 0
-1097 -4697 0
-1098 -4698 0
-1099 -4699 0
-1100 -4700 0
-1101 -4701 0
-1102 -4702 0
-1103 -4703 0
-1104 -4704 0
-1105 -4705 0
-1106 -4706 0
-1107 -4707 0
-1108 -4708 0
-1109 -4709 0
-1110 -4710 0
-1111 -4711 0
-1112 -4712 0
-1113 -4713 0
-1114 -4714 0
-1115 -4715 0
-1116 -4716 0
-1117 -4717 0
-1118 -4718 0
-1119 -4719 0
-1120 -4720 0
-1121 -4721 0
-1122 -4722 0
-1123 -4723 0
-1124 -4724 0
-1125 -4725 0
-1126 -4726 0
-1127 -4727 0
-1128 -4728 0
-1129 -4729 0
-1130 -4730 0
-1131 -4731 0
-1132 -4732 0
-1133 -4733 0
-1134 -4734 0
-1135 -4735 0
-1136 -4736 0
-1137 -4737 0
-1138 -4738 0
-1139 -4739 0
-1140 -4740 0
-1141 -241 0
-1142 -242 0
-1143 -243 0
-1144 -244 0
-1145 -245 0
-1146 -246 0
-1147 -247 0
-1148 -248 0
-1149 -249 0
-1150 -250 0
-1151 -251 0
-1152 -252 0
-1153 -253 0
-1154 -254 0
-1155 -255 0
-1156 -256 0
-1157 -257 0
-1158 -258 0
-1159 -259 0
-1160 -260 0
-1161 -261 0
-1162 -262 0
-1163 -263 0
-1164 -264 0
-1165 -265 0
-1166 -266 0
-1167 -267 0
-1168 -268 0
-1169 -269 0
-1170 -270 0
-1171 -271 0
-1172 -272 0
-1173 -273 0
-1174 -274 0
-1175 -275 0
-1176 -276 0
-1177 -277 0
-1178 -278 0
-1179 -279 0
-1180 -280 0
-1181 -281 0
-1182 -282 0
-1183 -283 0
-1184 -284 0
-1185 -285 0
-1186 -286 0
-1187 -287 0
-1188 -288 0
-1189 -289 0
-1190 -290 0
-1191 -291 0
-1192 -292 0
-1193 -293 0
-1194 -294 0
-1195 -295 0
-1196 -296 0
-1197 -297 0
-1198 -298 0
-1199 -299 0
-1200 -300 0
-1141 -541 0
-1142 -542 0
-1143 -543 0
-1144 -544 0
-1145 -545 0
-1146 -546 0
-1147 -547 0
-1148 -548 0
-1149 -549 0
-1150 -550 0
-1151 -551 0
-1152 -552 0
-1153 -553 0
-1154 -554 0
-1155 -555 0
-1156 -556 0
-1157 -557 0
-1158 -558 0
-1159 -559 0
-1160 -560 0
-1161 -561 0
-1162 -562 0
-1163 -563 0
-1164 -564 0
-1165 -565 0
-1166 -566 0
-1167 -567 0
-1168 -568 0
-1169 -569 0
-1170 -570 0
-1171 -571 0
-1172 -572 0
-1173 -573 0
-1174 -574 0
-1175 -575 0
-1176 -576 0
-1177 -577 0
-1178 -578 0
-1179 -579 0
-1180 -580 0
-1181 -581 0
-1182 -582 0
-1183 -583 0
-1184 -584 0
-1185 -585 0
-1186 -586 0
-1187 -587 0
-1188 -588 0
-1189 -589 0
-1190 -590 0
-1191 -591 0
-1192 -592 0
-1193 -593 0
-1194 -594 0
-1195 -595 0
-1196 -596 0
-1197 -597 0
-1198 -598 0
-1199 -599 0
-1200 -600 0
-1141 -961 0
-1142 -962 0
-1143 -963 0
-1144 -964 0
-1145 -965 0
-1146 -966 0
-1147 -967 0
-1148 -968 0
-1149 -969 0
-1150 -970 0
-1151 -971 0
-1152 -972 0
-1153 -973 0
-1154 -974 0
-1155 -975 0
-1156 -976 0
-1157 -977 0
-1158 -978 0
-1159 -979 0
-1160 -980 0
-1161 -981 0
-1162 -982 0
-1163 -983 0
-1164 -984 0
-1165 -985 0
-1166 -986 0
-1167 -987 0
-1168 -988 0
-1169 -989 0
-1170 -990 0
-1171 -991 0
-1172 -992 0
-1173 -993 0
-1174 -994 0
-1175 -995 0
-1176 -996 0
-1177 -997 0
-1178 -998 0
-1179 -999 0
-1180 -1000 0
-1181 -1001 0
-1182 -1002 0
-1183 -1003 0
-1184 -1004 0
-1185 -1005 0
-1186 -1006 0
-1187 -1007 0
-1188 -1008 0
-1189 -1009 0
-1190 -1010 0
-1191 -1011 0
-1192 -1012 0
-1193 -1013 0
-1194 -1014 0
-1195 -1015 0
-1196 -1016 0
-1197 -1017 0
-1198 -1018 0
-1199 -1019 0
-1200 -1020 0
-1141 -1261 0
-1142 -1262 0
-1143 -1263 0
-1144 -1264 0
-1145 -1265 0
-1146 -1266 0
-1147 -1267 0
-1148 -1268 0
-1149 -1269 0
-1150 -1270 0
-1151 -1271 0
-1152 -1272 0
-1153 -1273 0
-1154 -1274 0
-1155 -1275 0
-1156 -1276 0
-1157 -1277 0
-1158 -1278 0
-1159 -1279 0
-1160 -1280 0
-1161 -1281 0
-1162 -1282 0
-1163 -1283 0
-1164 -1284 0
-1165 -1285 0
-1166 -1286 0
-1167 -1287 0
-1168 -1288 0
-1169 -1289 0
-1170 -1290 0
-1171 -1291 0
-1172 -1292 0
-1173 -1293 0
-1174 -1294 0
-1175 -1295 0
-1176 -1296 0
-1177 -1297 0
-1178 -1298 0
-1179 -1299 0
-1180 -1300 0
-1181 -1301 0
-1182 -1302 0
-1183 -1303 0
-1184 -1304 0
-1185 -1305 0
-1186 -1306 0
-1187 -1307 0
-1188 -1308 0
-1189 -1309 0
-1190 -1310 0
-1191 -1311 0
-1192 -1312 0
-1193 -1313 0
-1194 -1314 0
-1195 -1315 0
-1196 -1316 0
-1197 -1317 0
-1198 -1318 0
-1199 -1319 0
-1200 -1320 0
-1141 -2161 0
-1142 -2162 0
-1143 -2163 0
-1144 -2164 0
-1145 -2165 0
-1146 -2166 0
-1147 -2167 0
-1148 -2168 0
-1149 -2169 0
-1150 -2170 0
-1151 -2171 0
-1152 -2172 0
-1153 -2173 0
-1154 -2174 0
-1155 -2175 0
-1156 -2176 0
-1157 -2177 0
-1158 -2178 0
-1159 -2179 0
-1160 -2180 0
-1161 -2181 0
-1162 -2182 0
-1163 -2183 0
-1164 -2184 0
-1165 -2185 0
-1166 -2186 0
-1167 -2187 0
-1168 -2188 0
-1169 -2189 0
-1170 -2190 0
-1171 -2191 0
-1172 -2192 0
-1173 -2193 0
-1174 -2194 0
-1175 -2195 0
-1176 -2196 0
-1177 -2197 0
-1178 -2198 0
-1179 -2199 0
-1180 -2200 0
-1181 -2201 0
-1182 -2202 0
-1183 -2203 0
-1184 -2204 0
-1185 -2205 0
-1186 -2206 0
-1187 -2207 0
-1188 -2208 0
-1189 -2209 0
-1190 -2210 0
-1191 -2211 0
-1192 -2212 0
-1193 -2213 0
-1194 -2214 0
-1195 -2215 0
-1196 -2216 0
-1197 -2217 0
-1198 -2218 0
-1199 -2219 0
-1200 -2220 0
-1141 -2281 0
-1142 -2282 0
-1143 -2283 0
-1144 -2284 0
-1145 -2285 0
-1146 -2286 0
-1147 -2287 0
-1148 -2288 0
-1149 -2289 0
-1150 -2290 0
-1151 -2291 0
-1152 -2292 0
-1153 -2293 0
-1154 -2294 0
-1155 -2295 0
-1156 -2296 0
-1157 -2297 0
-1158 -2298 0
-1159 -2299 0
-1160 -2300 0
-1161 -2301 0
-1162 -2302 0
-1163 -2303 0
-1164 -2304 0
-1165 -2305 0
-1166 -2306 0
-1167 -2307 0
-1168 -2308 0
-1169 -2309 0
-1170 -2310 0
-1171 -2311 0
-1172 -2312 0
-1173 -2313 0
-1174 -2314 0
-1175 -2315 0
-1176 -2316 0
-1177 -2317 0
-1178 -2318 0
-1179 -2319 0
-1180 -2320 0
-1181 -2321 0
-1182 -2322 0
-1183 -2323 0
-1184 -2324 0
-1185 -2325 0
-1186 -2326 0
-1187 -2327 0
-1188 -2328 0
-1189 -2329 0
-1190 -2330 0
-1191 -2331 0
-1192 -2332 0
-1193 -2333 0
-1194 -2334 0
-1195 -2335 0
-1196 -2336 0
-1197 -2337 0
-1198 -2338 0
-1199 -2339 0
-1200 -2340 0
-1261 -241 0
-1262 -242 0
-1263 -243 0
-1264 -244 0
-1265 -245 0
-1266 -246 0
-1267 -247 0
-1268 -248 0
-1269 -249 0
-1270 -250 0
-1271 -251 0
-1272 -252 0
-1273 -253 0
-1274 -254 0
-1275 -255 0
-1276 -256 0
-1277 -257 0
-1278 -258 0
-1279 -259 0
-1280 -260 0
-1281 -261 0
-1282 -262 0
-1283 -263 0
-1284 -264 0
-1285 -265 0
-1286 -266 0
-1287 -267 0
-1288 -268 0
-1289 -269 0
-1290 -270 0
-1291 -271 0
-1292 -272 0
-1293 -273 0
-1294 -274 0
-1295 -275 0
-1296 -276 0
-1297 -277 0
-1298 -278 0
-1299 -279 0
-1300 -280 0
-1301 -281 0
-1302 -282 0
-1303 -283 0
-1304 -284 0
-1305 -285 0
-1306 -286 0
-1307 -287 0
-1308 -288 0
-1309 -289 0
-1310 -290 0
-1311 -291 0
-1312 -292 0
-1313 -293 0
-1314 -294 0
-1315 -295 0
-1316 -296 0
-1317 -297 0
-1318 -298 0
-1319 -299 0
-1320 -300 0
-1261 -541 0
-1262 -542 0
-1263 -543 0
-1264 -544 0
-1265 -545 0
-1266 -546 0
-1267 -547 0
-1268 -548 0
-1269 -549 0
-1270 -550 0
-1271 -551 0
-1272 -552 0
-1273 -553 0
-1274 -554 0
-1275 -555 0
-1276 -556 0
-1277 -557 0
-1278 -558 0
-1279 -559 0
-1280 -560 0
-1281 -561 0
-1282 -562 0
-1283 -563 0
-1284 -564 0
-1285 -565 0
-1286 -566 0
-1287 -567 0
-1288 -568 0
-1289 -569 0
-1290 -570 0
-1291 -571 0
-1292 -572 0
-1293 -573 0
-1294 -574 0
-1295 -575 0
-1296 -576 0
-1297 -577 0
-1298 -578 0
-1299 -579 0
-1300 -580 0
-1301 -581 0
-1302 -582 0
-1303 -583 0
-1304 -584 0
-1305 -585 0
-1306 -586 0
-1307 -587 0
-1308 -588 0
-1309 -589 0
-1310 -590 0
-1311 -591 0
-1312 -592 0
-1313 -593 0
-1314 -594 0
-1315 -595 0
-1316 -596 0
-1317 -597 0
-1318 -598 0
-1319 -599 0
-1320 -600 0
-1261 -961 0
-1262 -962 0
-1263 -963 0
-1264 -964 0
-1265 -965 0
-1266 -966 0
-1267 -967 0
-1268 -968 0
-1269 -969 0
-1270 -970 0
-1271 -971 0
-1272 -972 0
-1273 -973 0
-1274 -974 0
-1275 -975 0
-1276 -976 0
-1277 -977 0
-1278 -978 0
-1279 -979 0
-1280 -980 0
-1281 -981 0
-1282 -982 0
-1283 -983 0
-1284 -984 0
-1285 -985 0
-1286 -986 0
-1287 -987 0
-1288 -988 0
-1289 -989 0
-1290 -990 0
-1291 -991 0
-1292 -992 0
-1293 -993 0
-1294 -994 0
-1295 -995 0
-1296 -996 0
-1297 -997 0
-1298 -998 0
-1299 -999 0
-1300 -1000 0
-1301 -1001 0
-1302 -1002 0
-1303 -1003 0
-1304 -1004 0
-1305 -1005 0
-1306 -1006 0
-1307 -1007 0
-1308 -1008 0
-1309 -1009 0
-1310 -1010 0
-1311 -1011 0
-1312 -1012 0
-1313 -1013 0
-1314 -1014 0
-1315 -1015 0
-1316 -1016 0
-1317 -1017 0
-1318 -1018 0
-1319 -1019 0
-1320 -1020 0
-1261 -1141 0
-1262 -1142 0
-1263 -1143 0
-1264 -1144 0
-1265 -1145 0
-1266 -1146 0
-1267 -1147 0
-1268 -1148 0
-1269 -1149 0
-1270 -1150 0
-1271 -1151 0
-1272 -1152 0
-1273 -1153 0
-1274 -1154 0
-1275 -1155 0
-1276 -1156 0
-1277 -1157 0
-1278 -1158 0
-1279 -1159 0
-1280 -1160 0
-1281 -1161 0
-1282 -1162 0
-1283 -1163 0
-1284 -1164 0
-1285 -1165 0
-1286 -1166 0
-1287 -1167 0
-1288 -1168 0
-1289 -1169 0
-1290 -1170 0
-1291 -1171 0
-1292 -1172 0
-1293 -1173 0
-1294 -1174 0
-1295 -1175 0
-1296 -1176 0
-1297 -1177 0
-1298 -1178 0
-1299 -1179 0
-1300 -1180 0
-1301 -1181 0
-1302 -1182 0
-1303 -1183 0
-1304 -1184 0
-1305 -1185 0
-1306 -1186 0
-1307 -1187 0
-1308 -1188 0
-1309 -1189 0
-1310 -1190 0
-1311 -1191 0
-1312 -1192 0
-1313 -1193 0
-1314 -1194 0
-1315 -1195 0
-1316 -1196 0
-1317 -1197 0
-1318 -1198 0
-1319 -1199 0
-1320 -1200 0
-1261 -2161 0
-1262 -2162 0
-1263 -2163 0
-1264 -2164 0
-1265 -2165 0
-1266 -2166 0
-1267 -2167 0
-1268 -2168 0
-1269 -2169 0
-1270 -2170 0
-1271 -2171 0
-1272 -2172 0
-1273 -2173 0
-1274 -2174 0
-1275 -2175 0
-1276 -2176 0
-1277 -2177 0
-1278 -2178 0
-1279 -2179 0
-1280 -2180 0
-1281 -2181 0
-1282 -2182 0
-1283 -2183 0
-1284 -2184 0
-1285 -2185 0
-1286 -2186 0
-1287 -2187 0
-1288 -2188 0
-1289 -2189 0
-1290 -2190 0
-1291 -2191 0
-1292 -2192 0
-1293 -2193 0
-1294 -2194 0
-1295 -2195 0
-1296 -2196 0
-1297 -2197 0
-1298 -2198 0
-1299 -2199 0
-1300 -2200 0
-1301 -2201 0
-1302 -2202 0
-1303 -2203 0
-1304 -2204 0
-1305 -2205 0
-1306 -2206 0
-1307 -2207 0
-1308 -2208 0
-1309 -2209 0
-1310 -2210 0
-1311 -2211 0
-1312 -2212 0
-1313 -2213 0
-1314 -2214 0
-1315 -2215 0
-1316 -2216 0
-1317 -2217 0
-1318 -2218 0
-1319 -2219 0
-1320 -2220 0
-1261 -2281 0
-1262 -2282 0
-1263 -2283 0
-1264 -2284 0
-1265 -2285 0
-1266 -2286 0
-1267 -2287 0
-1268 -2288 0
-1269 -2289 0
-1270 -2290 0
-1271 -2291 0
-1272 -2292 0
-1273 -2293 0
-1274 -2294 0
-1275 -2295 0
-1276 -2296 0
-1277 -2297 0
-1278 -2298 0
-1279 -2299 0
-1280 -2300 0
-1281 -2301 0
-1282 -2302 0
-1283 -2303 0
-1284 -2304 0
-1285 -2305 0
-1286 -2306 0
-1287 -2307 0
-1288 -2308 0
-1289 -2309 0
-1290 -2310 0
-1291 -2311 0
-1292 -2312 0
-1293 -2313 0
-1294 -2314 0
-1295 -2315 0
-1296 -2316 0
-1297 -2317 0
-1298 -2318 0
-1299 -2319 0
-1300 -2320 0
-1301 -2321 0
-1302 -2322 0
-1303 -2323 0
-1304 -2324 0
-1305 -2325 0
-1306 -2326 0
-1307 -2327 0
-1308 -2328 0
-1309 -2329 0
-1310 -2330 0
-1311 -2331 0
-1312 -2332 0
-1313 -2333 0
-1314 -2334 0
-1315 -2335 0
-1316 -2336 0
-1317 -2337 0
-1318 -2338 0
-1319 -2339 0
-1320 -2340 0
-1321 -841 0
-1322 -842 0
-1323 -843 0
-1324 -844 0
-1325 -845 0
-1326 -846 0
-1327 -847 0
-1328 -848 0
-1329 -849 0
-1330 -850 0
-1331 -851 0
-1332 -852 0
-1333 -853 0
-1334 -854 0
-1335 -855 0
-1336 -856 0
-1337 -857 0
-1338 -858 0
-1339 -859 0
-1340 -860 0
-1341 -861 0
-1342 -862 0
-1343 -863 0
-1344 -864 0
-1345 -865 0
-1346 -866 0
-1347 -867 0
-1348 -868 0
-1349 -869 0
-1350 -870 0
-1351 -871 0
-1352 -872 0
-1353 -873 0
-1354 -874 0
-1355 -875 0
-1356 -876 0
-1357 -877 0
-1358 -878 0
-1359 -879 0
-1360 -880 0
-1361 -881 0
-1362 -882 0
-1363 -883 0
-1364 -884 0
-1365 -885 0
-1366 -886 0
-1367 -887 0
-1368 -888 0
-1369 -889 0
-1370 -890 0
-1371 -891 0
-1372 -892 0
-1373 -893 0
-1374 -894 0
-1375 -895 0
-1376 -896 0
-1377 -897 0
-1378 -898 0
-1379 -899 0
-1380 -900 0
-1321 -4561 0
-1322 -4562 0
-1323 -4563 0
-1324 -4564 0
-1325 -4565 0
-1326 -4566 0
-1327 -4567 0
-1328 -4568 0
-1329 -4569 0
-1330 -4570 0
-1331 -4571 0
-1332 -4572 0
-1333 -4573 0
-1334 -4574 0
-1335 -4575 0
-1336 -4576 0
-1337 -4577 0
-1338 -4578 0
-1339 -4579 0
-1340 -4580 0
-1341 -4581 0
-1342 -4582 0
-1343 -4583 0
-1344 -4584 0
-1345 -4585 0
-1346 -4586 0
-1347 -4587 0
-1348 -4588 0
-1349 -4589 0
-1350 -4590 0
-1351 -4591 0
-1352 -4592 0
-1353 -4593 0
-1354 -4594 0
-1355 -4595 0
-1356 -4596 0
-1357 -4597 0
-1358 -4598 0
-1359 -4599 0
-1360 -4600 0
-1361 -4601 0
-1362 -4602 0
-1363 -4603 0
-1364 -4604 0
-1365 -4605 0
-1366 -4606 0
-1367 -4607 0
-1368 -4608 0
-1369 -4609 0
-1370 -4610 0
-1371 -4611 0
-1372 -4612 0
-1373 -4613 0
-1374 -4614 0
-1375 -4615 0
-1376 -4616 0
-1377 -4617 0
-1378 -4618 0
-1379 -4619 0
-1380 -4620 0
-1381 -781 0
-1382 -782 0
-1383 -783 0
-1384 -784 0
-1385 -785 0
-1386 -786 0
-1387 -787 0
-1388 -788 0
-1389 -789 0
-1390 -790 0
-1391 -791 0
-1392 -792 0
-1393 -793 0
-1394 -794 0
-1395 -795 0
-1396 -796 0
-1397 -797 0
-1398 -798 0
-1399 -799 0
-1400 -800 0
-1401 -801 0
-1402 -802 0
-1403 -803 0
-1404 -804 0
-1405 -805 0
-1406 -806 0
-1407 -807 0
-1408 -808 0
-1409 -809 0
-1410 -810 0
-1411 -811 0
-1412 -812 0
-1413 -813 0
-1414 -814 0
-1415 -815 0
-1416 -816 0
-1417 -817 0
-1418 -818 0
-1419 -819 0
-1420 -820 0
-1421 -821 0
-1422 -822 0
-1423 -823 0
-1424 -824 0
-1425 -825 0
-1426 -826 0
-1427 -827 0
-1428 -828 0
-1429 -829 0
-1430 -830 0
-1431 -831 0
-1432 -832 0
-1433 -833 0
-1434 -834 0
-1435 -835 0
-1436 -836 0
-1437 -837 0
-1438 -838 0
-1439 -839 0
-1440 -840 0
-1441 -121 0
-1442 -122 0
-1443 -123 0
-1444 -124 0
-1445 -125 0
-1446 -126 0
-1447 -127 0
-1448 -128 0
-1449 -129 0
-1450 -130 0
-1451 -131 0
-1452 -132 0
-1453 -133 0
-1454 -134 0
-1455 -135 0
-1456 -136 0
-1457 -137 0
-1458 -138 0
-1459 -139 0
-1460 -140 0
-1461 -141 0
-1462 -142 0
-1463 -143 0
-1464 -144 0
-1465 -145 0
-1466 -146 0
-1467 -147 0
-1468 -148 0
-1469 -149 0
-1470 -150 0
-1471 -151 0
-1472 -152 0
-1473 -153 0
-1474 -154 0
-1475 -155 0
-1476 -156 0
-1477 -157 0
-1478 -158 0
-1479 -159 0
-1480 -160 0
-1481 -161 0
-1482 -162 0
-1483 -163 0
-1484 -164 0
-1485 -165 0
-1486 -166 0
-1487 -167 0
-1488 -168 0
-1489 -169 0
-1490 -170 0
-1491 -171 0
-1492 -172 0
-1493 -173 0
-1494 -174 0
-1495 -175 0
-1496 -176 0
-1497 -177 0
-1498 -178 0
-1499 -179 0
-1500 -180 0
-1441 -1561 0
-1442 -1562 0
-1443 -1563 0
-1444 -1564 0
-1445 -1565 0
-1446 -1566 0
-1447 -1567 0
-1448 -1568 0
-1449 -1569 0
-1450 -1570 0
-1451 -1571 0
-1452 -1572 0
-1453 -1573 0
-1454 -1574 0
-1455 -1575 0
-1456 -1576 0
-1457 -1577 0
-1458 -1578 0
-1459 -1579 0
-1460 -1580 0
-1461 -1581 0
-1462 -1582 0
-1463 -1583 0
-1464 -1584 0
-1465 -1585 0
-1466 -1586 0
-1467 -1587 0
-1468 -1588 0
-1469 -1589 0
-1470 -1590 0
-1471 -1591 0
-1472 -1592 0
-1473 -1593 0
-1474 -1594 0
-1475 -1595 0
-1476 -1596 0
-1477 -1597 0
-1478 -1598 0
-1479 -1599 0
-1480 -1600 0
-1481 -1601 0
-1482 -1602 0
-1483 -1603 0
-1484 -1604 0
-1485 -1605 0
-1486 -1606 0
-1487 -1607 0
-1488 -1608 0
-1489 -1609 0
-1490 -1610 0
-1491 -1611 0
-1492 -1612 0
-1493 -1613 0
-1494 -1614 0
-1495 -1615 0
-1496 -1616 0
-1497 -1617 0
-1498 -1618 0
-1499 -1619 0
-1500 -1620 0
-1441 -1921 0
-1442 -1922 0
-1443 -1923 0
-1444 -1924 0
-1445 -1925 0
-1446 -1926 0
-1447 -1927 0
-1448 -1928 0
-1449 -1929 0
-1450 -1930 0
-1451 -1931 0
-1452 -1932 0
-1453 -1933 0
-1454 -1934 0
-1455 -1935 0
-1456 -1936 0
-1457 -1937 0
-1458 -1938 0
-1459 -1939 0
-1460 -1940 0
-1461 -1941 0
-1462 -1942 0
-1463 -1943 0
-1464 -1944 0
-1465 -1945 0
-1466 -1946 0
-1467 -1947 0
-1468 -1948 0
-1469 -1949 0
-1470 -1950 0
-1471 -1951 0
-1472 -1952 0
-1473 -1953 0
-1474 -1954 0
-1475 -1955 0
-1476 -1956 0
-1477 -1957 0
-1478 -1958 0
-1479 -1959 0
-1480 -1960 0
-1481 -1961 0
-1482 -1962 0
-1483 -1963 0
-1484 -1964 0
-1485 -1965 0
-1486 -1966 0
-1487 -1967 0
-1488 -1968 0
-1489 -1969 0
-1490 -1970 0
-1491 -1971 0
-1492 -1972 0
-1493 -1973 0
-1494 -1974 0
-1495 -1975 0
-1496 -1976 0
-1497 -1977 0
-1498 -1978 0
-1499 -1979 0
-1500 -1980 0
-1441 -2341 0
-1442 -2342 0
-1443 -2343 0
-1444 -2344 0
-1445 -2345 0
-1446 -2346 0
-1447 -2347 0
-1448 -2348 0
-1449 -2349 0
-1450 -2350 0
-1451 -2351 0
-1452 -2352 0
-1453 -2353 0
-1454 -2354 0
-1455 -2355 0
-1456 -2356 0
-1457 -2357 0
-1458 -2358 0
-1459 -2359 0
-1460 -2360 0
-1461 -2361 0
-1462 -2362 0
-1463 -2363 0
-1464 -2364 0
-1465 -2365 0
-1466 -2366 0
-1467 -2367 0
-1468 -2368 0
-1469 -2369 0
-1470 -2370 0
-1471 -2371 0
-1472 -2372 0
-1473 -2373 0
-1474 -2374 0
-1475 -2375 0
-1476 -2376 0
-1477 -2377 0
-1478 -2378 0
-1479 -2379 0
-1480 -2380 0
-1481 -2381 0
-1482 -2382 0
-1483 -2383 0
-1484 -2384 0
-1485 -2385 0
-1486 -2386 0
-1487 -2387 0
-1488 -2388 0
-1489 -2389 0
-1490 -2390 0
-1491 -2391 0
-1492 -2392 0
-1493 -2393 0
-1494 -2394 0
-1495 -2395 0
-1496 -2396 0
-1497 -2397 0
-1498 -2398 0
-1499 -2399 0
-1500 -2400 0
-1441 -3721 0
-1442 -3722 0
-1443 -3723 0
-1444 -3724 0
-1445 -3725 0
-1446 -3726 0
-1447 -3727 0
-1448 -3728 0
-1449 -3729 0
-1450 -3730 0
-1451 -3731 0
-1452 -3732 0
-1453 -3733 0
-1454 -3734 0
-1455 -3735 0
-1456 -3736 0
-1457 -3737 0
-1458 -3738 0
-1459 -3739 0
-1460 -3740 0
-1461 -3741 0
-1462 -3742 0
-1463 -3743 0
-1464 -3744 0
-1465 -3745 0
-1466 -3746 0
-1467 -3747 0
-1468 -3748 0
-1469 -3749 0
-1470 -3750 0
-1471 -3751 0
-1472 -3752 0
-1473 -3753 0
-1474 -3754 0
-1475 -3755 0
-1476 -3756 0
-1477 -3757 0
-1478 -3758 0
-1479 -3759 0
-1480 -3760 0
-1481 -3761 0
-1482 -3762 0
-1483 -3763 0
-1484 -3764 0
-1485 -3765 0
-1486 -3766 0
-1487 -3767 0
-1488 -3768 0
-1489 -3769 0
-1490 -3770 0
-1491 -3771 0
-1492 -3772 0
-1493 -3773 0
-1494 -3774 0
-1495 -3775 0
-1496 -3776 0
-1497 -3777 0
-1498 -3778 0
-1499 -3779 0
-1500 -3780 0
-1441 -4081 0
-1442 -4082 0
-1443 -4083 0
-1444 -4084 0
-1445 -4085 0
-1446 -4086 0
-1447 -4087 0
-1448 -4088 0
-1449 -4089 0
-1450 -4090 0
-1451 -4091 0
-1452 -4092 0
-1453 -4093 0
-1454 -4094 0
-1455 -4095 0
-1456 -4096 0
-1457 -4097 0
-1458 -4098 0
-1459 -4099 0
-1460 -4100 0
-1461 -4101 0
-1462 -4102 0
-1463 -4103 0
-1464 -4104 0
-1465 -4105 0
-1466 -4106 0
-1467 -4107 0
-1468 -4108 0
-1469 -4109 0
-1470 -4110 0
-1471 -4111 0
-1472 -4112 0
-1473 -4113 0
-1474 -4114 0
-1475 -4115 0
-1476 -4116 0
-1477 -4117 0
-1478 -4118 0
-1479 -4119 0
-1480 -4120 0
-1481 -4121 0
-1482 -4122 0
-1483 -4123 0
-1484 -4124 0
-1485 -4125 0
-1486 -4126 0
-1487 -4127 0
-1488 -4128 0
-1489 -4129 0
-1490 -4130 0
-1491 -4131 0
-1492 -4132 0
-1493 -4133 0
-1494 -4134 0
-1495 -4135 0
-1496 -4136 0
-1497 -4137 0
-1498 -4138 0
-1499 -4139 0
-1500 -4140 0
-1441 -4321 0
-1442 -4322 0
-1443 -4323 0
-1444 -4324 0
-1445 -4325 0
-1446 -4326 0
-1447 -4327 0
-1448 -4328 0
-1449 -4329 0
-1450 -4330 0
-1451 -4331 0
-1452 -4332 0
-1453 -4333 0
-1454 -4334 0
-1455 -4335 0
-1456 -4336 0
-1457 -4337 0
-1458 -4338 0
-1459 -4339 0
-1460 -4340 0
-1461 -4341 0
-1462 -4342 0
-1463 -4343 0
-1464 -4344 0
-1465 -4345 0
-1466 -4346 0
-1467 -4347 0
-1468 -4348 0
-1469 -4349 0
-1470 -4350 0
-1471 -4351 0
-1472 -4352 0
-1473 -4353 0
-1474 -4354 0
-1475 -4355 0
-1476 -4356 0
-1477 -4357 0
-1478 -4358 0
-1479 -4359 0
-1480 -4360 0
-1481 -4361 0
-1482 -4362 0
-1483 -4363 0
-1484 -4364 0
-1485 -4365 0
-1486 -4366 0
-1487 -4367 0
-1488 -4368 0
-1489 -4369 0
-1490 -4370 0
-1491 -4371 0
-1492 -4372 0
-1493 -4373 0
-1494 -4374 0
-1495 -4375 0
-1496 -4376 0
-1497 -4377 0
-1498 -4378 0
-1499 -4379 0
-1500 -4380 0
-1501 -841 0
-1502 -842 0
-1503 -843 0
-1504 -844 0
-1505 -845 0
-1506 -846 0
-1507 -847 0
-1508 -848 0
-1509 -849 0
-1510 -850 0
-1511 -851 0
-1512 -852 0
-1513 -853 0
-1514 -854 0
-1515 -855 0
-1516 -856 0
-1517 -857 0
-1518 -858 0
-1519 -859 0
-1520 -860 0
-1521 -861 0
-1522 -862 0
-1523 -863 0
-1524 -864 0
-1525 -865 0
-1526 -866 0
-1527 -867 0
-1528 -868 0
-1529 -869 0
-1530 -870 0
-1531 -871 0
-1532 -872 0
-1533 -873 0
-1534 -874 0
-1535 -875 0
-1536 -876 0
-1537 -877 0
-1538 -878 0
-1539 -879 0
-1540 -880 0
-1541 -881 0
-1542 -882 0
-1543 -883 0
-1544 -884 0
-1545 -885 0
-1546 -886 0
-1547 -887 0
-1548 -888 0
-1549 -889 0
-1550 -890 0
-1551 -891 0
-1552 -892 0
-1553 -893 0
-1554 -894 0
-1555 -895 0
-1556 -896 0
-1557 -897 0
-1558 -898 0
-1559 -899 0
-1560 -900 0
-1501 -1681 0
-1502 -1682 0
-1503 -1683 0
-1504 -1684 0
-1505 -1685 0
-1506 -1686 0
-1507 -1687 0
-1508 -1688 0
-1509 -1689 0
-1510 -1690 0
-1511 -1691 0
-1512 -1692 0
-1513 -1693 0
-1514 -1694 0
-1515 -1695 0
-1516 -1696 0
-1517 -1697 0
-1518 -1698 0
-1519 -1699 0
-1520 -1700 0
-1521 -1701 0
-1522 -1702 0
-1523 -1703 0
-1524 -1704 0
-1525 -1705 0
-1526 -1706 0
-1527 -1707 0
-1528 -1708 0
-1529 -1709 0
-1530 -1710 0
-1531 -1711 0
-1532 -1712 0
-1533 -1713 0
-1534 -1714 0
-1535 -1715 0
-1536 -1716 0
-1537 -1717 0
-1538 -1718 0
-1539 -1719 0
-1540 -1720 0
-1541 -1721 0
-1542 -1722 0
-1543 -1723 0
-1544 -1724 0
-1545 -1725 0
-1546 -1726 0
-1547 -1727 0
-1548 -1728 0
-1549 -1729 0
-1550 -1730 0
-1551 -1731 0
-1552 -1732 0
-1553 -1733 0
-1554 -1734 0
-1555 -1735 0
-1556 -1736 0
-1557 -1737 0
-1558 -1738 0
-1559 -1739 0
-1560 -1740 0
-1501 -3481 0
-1502 -3482 0
-1503 -3483 0
-1504 -3484 0
-1505 -3485 0
-1506 -3486 0
-1507 -3487 0
-1508 -3488 0
-1509 -3489 0
-1510 -3490 0
-1511 -3491 0
-1512 -3492 0
-1513 -3493 0
-1514 -3494 0
-1515 -3495 0
-1516 -3496 0
-1517 -3497 0
-1518 -3498 0
-1519 -3499 0
-1520 -3500 0
-1521 -3501 0
-1522 -3502 0
-1523 -3503 0
-1524 -3504 0
-1525 -3505 0
-1526 -3506 0
-1527 -3507 0
-1528 -3508 0
-1529 -3509 0
-1530 -3510 0
-1531 -3511 0
-1532 -3512 0
-1533 -3513 0
-1534 -3514 0
-1535 -3515 0
-1536 -3516 0
-1537 -3517 0
-1538 -3518 0
-1539 -3519 0
-1540 -3520 0
-1541 -3521 0
-1542 -3522 0
-1543 -3523 0
-1544 -3524 0
-1545 -3525 0
-1546 -3526 0
-1547 -3527 0
-1548 -3528 0
-1549 -3529 0
-1550 -3530 0
-1551 -3531 0
-1552 -3532 0
-1553 -3533 0
-1554 -3534 0
-1555 -3535 0
-1556 -3536 0
-1557 -3537 0
-1558 -3538 0
-1559 -3539 0
-1560 -3540 0
-1501 -4561 0
-1502 -4562 0
-1503 -4563 0
-1504 -4564 0
-1505 -4565 0
-1506 -4566 0
-1507 -4567 0
-1508 -4568 0
-1509 -4569 0
-1510 -4570 0
-1511 -4571 0
-1512 -4572 0
-1513 -4573 0
-1514 -4574 0
-1515 -4575 0
-1516 -4576 0
-1517 -4577 0
-1518 -4578 0
-1519 -4579 0
-1520 -4580 0
-1521 -4581 0
-1522 -4582 0
-1523 -4583 0
-1524 -4584 0
-1525 -4585 0
-1526 -4586 0
-1527 -4587 0
-1528 -4588 0
-1529 -4589 0
-1530 -4590 0
-1531 -4591 0
-1532 -4592 0
-1533 -4593 0
-1534 -4594 0
-1535 -4595 0
-1536 -4596 0
-1537 -4597 0
-1538 -4598 0
-1539 -4599 0
-1540 -4600 0
-1541 -4601 0
-1542 -4602 0
-1543 -4603 0
-1544 -4604 0
-1545 -4605 0
-1546 -4606 0
-1547 -4607 0
-1548 -4608 0
-1549 -4609 0
-1550 -4610 0
-1551 -4611 0
-1552 -4612 0
-1553 -4613 0
-1554 -4614 0
-1555 -4615 0
-1556 -4616 0
-1557 -4617 0
-1558 -4618 0
-1559 -4619 0
-1560 -4620 0
-1561 -121 0
-1562 -122 0
-1563 -123 0
-1564 -124 0
-1565 -125 0
-1566 -126 0
-1567 -127 0
-1568 -128 0
-1569 -129 0
-1570 -130 0
-1571 -131 0
-1572 -132 0
-1573 -133 0
-1574 -134 0
-1575 -135 0
-1576 -136 0
-1577 -137 0
-1578 -138 0
-1579 -139 0
-1580 -140 0
-1581 -141 0
-1582 -142 0
-1583 -143 0
-1584 -144 0
-1585 -145 0
-1586 -146 0
-1587 -147 0
-1588 -148 0
-1589 -149 0
-1590 -150 0
-1591 -151 0
-1592 -152 0
-1593 -153 0
-1594 -154 0
-1595 -155 0
-1596 -156 0
-1597 -157 0
-1598 -158 0
-1599 -159 0
-1600 -160 0
-1601 -161 0
-1602 -162 0
-1603 -163 0
-1604 -164 0
-1605 -165 0
-1606 -166 0
-1607 -167 0
-1608 -168 0
-1609 -169 0
-1610 -170 0
-1611 -171 0
-1612 -172 0
-1613 -173 0
-1614 -174 0
-1615 -175 0
-1616 -176 0
-1617 -177 0
-1618 -178 0
-1619 -179 0
-1620 -180 0
-1561 -1441 0
-1562 -1442 0
-1563 -1443 0
-1564 -1444 0
-1565 -1445 0
-1566 -1446 0
-1567 -1447 0
-1568 -1448 0
-1569 -1449 0
-1570 -1450 0
-1571 -1451 0
-1572 -1452 0
-1573 -1453 0
-1574 -1454 0
-1575 -1455 0
-1576 -1456 0
-1577 -1457 0
-1578 -1458 0
-1579 -1459 0
-1580 -1460 0
-1581 -1461 0
-1582 -1462 0
-1583 -1463 0
-1584 -1464 0
-1585 -1465 0
-1586 -1466 0
-1587 -1467 0
-1588 -1468 0
-1589 -1469 0
-1590 -1470 0
-1591 -1471 0
-1592 -1472 0
-1593 -1473 0
-1594 -1474 0
-1595 -1475 0
-1596 -1476 0
-1597 -1477 0
-1598 -1478 0
-1599 -1479 0
-1600 -1480 0
-1601 -1481 0
-1602 -1482 0
-1603 -1483 0
-1604 -1484 0
-1605 -1485 0
-1606 -1486 0
-1607 -1487 0
-1608 -1488 0
-1609 -1489 0
-1610 -1490 0
-1611 -1491 0
-1612 -1492 0
-1613 -1493 0
-1614 -1494 0
-1615 -1495 0
-1616 -1496 0
-1617 -1497 0
-1618 -1498 0
-1619 -1499 0
-1620 -1500 0
-1561 -1921 0
-1562 -1922 0
-1563 -1923 0
-1564 -1924 0
-1565 -1925 0
-1566 -1926 0
-1567 -1927 0
-1568 -1928 0
-1569 -1929 0
-1570 -1930 0
-1571 -1931 0
-1572 -1932 0
-1573 -1933 0
-1574 -1934 0
-1575 -1935 0
-1576 -1936 0
-1577 -1937 0
-1578 -1938 0
-1579 -1939 0
-1580 -1940 0
-1581 -1941 0
-1582 -1942 0
-1583 -1943 0
-1584 -1944 0
-1585 -1945 0
-1586 -1946 0
-1587 -1947 0
-1588 -1948 0
-1589 -1949 0
-1590 -1950 0
-1591 -1951 0
-1592 -1952 0
-1593 -1953 0
-1594 -1954 0
-1595 -1955 0
-1596 -1956 0
-1597 -1957 0
-1598 -1958 0
-1599 -1959 0
-1600 -1960 0
-1601 -1961 0
-1602 -1962 0
-1603 -1963 0
-1604 -1964 0
-1605 -1965 0
-1606 -1966 0
-1607 -1967 0
-1608 -1968 0
-1609 -1969 0
-1610 -1970 0
-1611 -1971 0
-1612 -1972 0
-1613 -1973 0
-1614 -1974 0
-1615 -1975 0
-1616 -1976 0
-1617 -1977 0
-1618 -1978 0
-1619 -1979 0
-1620 -1980 0
-1561 -2341 0
-1562 -2342 0
-1563 -2343 0
-1564 -2344 0
-1565 -2345 0
-1566 -2346 0
-1567 -2347 0
-1568 -2348 0
-1569 -2349 0
-1570 -2350 0
-1571 -2351 0
-1572 -2352 0
-1573 -2353 0
-1574 -2354 0
-1575 -2355 0
-1576 -2356 0
-1577 -2357 0
-1578 -2358 0
-1579 -2359 0
-1580 -2360 0
-1581 -2361 0
-1582 -2362 0
-1583 -2363 0
-1584 -2364 0
-1585 -2365 0
-1586 -2366 0
-1587 -2367 0
-1588 -2368 0
-1589 -2369 0
-1590 -2370 0
-1591 -2371 0
-1592 -2372 0
-1593 -2373 0
-1594 -2374 0
-1595 -2375 0
-1596 -2376 0
-1597 -2377 0
-1598 -2378 0
-1599 -2379 0
-1600 -2380 0
-1601 -2381 0
-1602 -2382 0
-1603 -2383 0
-1604 -2384 0
-1605 -2385 0
-1606 -2386 0
-1607 -2387 0
-1608 -2388 0
-1609 -2389 0
-1610 -2390 0
-1611 -2391 0
-1612 -2392 0
-1613 -2393 0
-1614 -2394 0
-1615 -2395 0
-1616 -2396 0
-1617 -2397 0
-1618 -2398 0
-1619 -2399 0
-1620 -2400 0
-1561 -3721 0
-1562 -3722 0
-1563 -3723 0
-1564 -3724 0
-1565 -3725 0
-1566 -3726 0
-1567 -3727 0
-1568 -3728 0
-1569 -3729 0
-1570 -3730 0
-1571 -3731 0
-1572 -3732 0
-1573 -3733 0
-1574 -3734 0
-1575 -3735 0
-1576 -3736 0
-1577 -3737 0
-1578 -3738 0
-1579 -3739 0
-1580 -3740 0
-1581 -3741 0
-1582 -3742 0
-1583 -3743 0
-1584 -3744 0
-1585 -3745 0
-1586 -3746 0
-1587 -3747 0
-1588 -3748 0
-1589 -3749 0
-1590 -3750 0
-1591 -3751 0
-1592 -3752 0
-1593 -3753 0
-1594 -3754 0
-1595 -3755 0
-1596 -3756 0
-1597 -3757 0
-1598 -3758 0
-1599 -3759 0
-1600 -3760 0
-1601 -3761 0
-1602 -3762 0
-1603 -3763 0
-1604 -3764 0
-1605 -3765 0
-1606 -3766 0
-1607 -3767 0
-1608 -3768 0
-1609 -3769 0
-1610 -3770 0
-1611 -3771 0
-1612 -3772 0
-1613 -3773 0
-1614 -3774 0
-1615 -3775 0
-1616 -3776 0
-1617 -3777 0
-1618 -3778 0
-1619 -3779 0
-1620 -3780 0
-1561 -4081 0
-1562 -4082 0
-1563 -4083 0
-1564 -4084 0
-1565 -4085 0
-1566 -4086 0
-1567 -4087 0
-1568 -4088 0
-1569 -4089 0
-1570 -4090 0
-1571 -4091 0
-1572 -4092 0
-1573 -4093 0
-1574 -4094 0
-1575 -4095 0
-1576 -4096 0
-1577 -4097 0
-1578 -4098 0
-1579 -4099 0
-1580 -4100 0
-1581 -4101 0
-1582 -4102 0
-1583 -4103 0
-1584 -4104 0
-1585 -4105 0
-1586 -4106 0
-1587 -4107 0
-1588 -4108 0
-1589 -4109 0
-1590 -4110 0
-1591 -4111 0
-1592 -4112 0
-1593 -4113 0
-1594 -4114 0
-1595 -4115 0
-1596 -4116 0
-1597 -4117 0
-1598 -4118 0
-1599 -4119 0
-1600 -4120 0
-1601 -4121 0
-1602 -4122 0
-1603 -4123 0
-1604 -4124 0
-1605 -4125 0
-1606 -4126 0
-1607 -4127 0
-1608 -4128 0
-1609 -4129 0
-1610 -4130 0
-1611 -4131 0
-1612 -4132 0
-1613 -4133 0
-1614 -4134 0
-1615 -4135 0
-1616 -4136 0
-1617 -4137 0
-1618 -4138 0
-1619 -4139 0
-1620 -4140 0
-1561 -4321 0
-1562 -4322 0
-1563 -4323 0
-1564 -4324 0
-1565 -4325 0
-1566 -4326 0
-1567 -4327 0
-1568 -4328 0
-1569 -4329 0
-1570 -4330 0
-1571 -4331 0
-1572 -4332 0
-1573 -4333 0
-1574 -4334 0
-1575 -4335 0
-1576 -4336 0
-1577 -4337 0
-1578 -4338 0
-1579 -4339 0
-1580 -4340 0
-1581 -4341 0
-1582 -4342 0
-1583 -4343 0
-1584 -4344 0
-1585 -4345 0
-1586 -4346 0
-1587 -4347 0
-1588 -4348 0
-1589 -4349 0
-1590 -4350 0
-1591 -4351 0
-1592 -4352 0
-1593 -4353 0
-1594 -4354 0
-1595 -4355 0
-1596 -4356 0
-1597 -4357 0
-1598 -4358 0
-1599 -4359 0
-1600 -4360 0
-1601 -4361 0
-1602 -4362 0
-1603 -4363 0
-1604 -4364 0
-1605 -4365 0
-1606 -4366 0
-1607 -4367 0
-1608 -4368 0
-1609 -4369 0
-1610 -4370 0
-1611 -4371 0
-1612 -4372 0
-1613 -4373 0
-1614 -4374 0
-1615 -4375 0
-1616 -4376 0
-1617 -4377 0
-1618 -4378 0
-1619 -4379 0
-1620 -4380 0
-1621 -121 0
-1622 -122 0
-1623 -123 0
-1624 -124 0
-1625 -125 0
-1626 -126 0
-1627 -127 0
-1628 -128 0
-1629 -129 0
-1630 -130 0
-1631 -131 0
-1632 -132 0
-1633 -133 0
-1634 -134 0
-1635 -135 0
-1636 -136 0
-1637 -137 0
-1638 -138 0
-1639 -139 0
-1640 -140 0
-1641 -141 0
-1642 -142 0
-1643 -143 0
-1644 -144 0
-1645 -145 0
-1646 -146 0
-1647 -147 0
-1648 -148 0
-1649 -149 0
-1650 -150 0
-1651 -151 0
-1652 -152 0
-1653 -153 0
-1654 -154 0
-1655 -155 0
-1656 -156 0
-1657 -157 0
-1658 -158 0
-1659 -159 0
-1660 -160 0
-1661 -161 0
-1662 -162 0
-1663 -163 0
-1664 -164 0
-1665 -165 0
-1666 -166 0
-1667 -167 0
-1668 -168 0
-1669 -169 0
-1670 -170 0
-1671 -171 0
-1672 -172 0
-1673 -173 0
-1674 -174 0
-1675 -175 0
-1676 -176 0
-1677 -177 0
-1678 -178 0
-1679 -179 0
-1680 -180 0
-1621 -241 0
-1622 -242 0
-1623 -243 0
-1624 -244 0
-1625 -245 0
-1626 -246 0
-1627 -247 0
-1628 -248 0
-1629 -249 0
-1630 -250 0
-1631 -251 0
-1632 -252 0
-1633 -253 0
-1634 -254 0
-1635 -255 0
-1636 -256 0
-1637 -257 0
-1638 -258 0
-1639 -259 0
-1640 -260 0
-1641 -261 0
-1642 -262 0
-1643 -263 0
-1644 -264 0
-1645 -265 0
-1646 -266 0
-1647 -267 0
-1648 -268 0
-1649 -269 0
-1650 -270 0
-1651 -271 0
-1652 -272 0
-1653 -273 0
-1654 -274 0
-1655 -275 0
-1656 -276 0
-1657 -277 0
-1658 -278 0
-1659 -279 0
-1660 -280 0
-1661 -281 0
-1662 -282 0
-1663 -283 0
-1664 -284 0
-1665 -285 0
-1666 -286 0
-1667 -287 0
-1668 -288 0
-1669 -289 0
-1670 -290 0
-1671 -291 0
-1672 -292 0
-1673 -293 0
-1674 -294 0
-1675 -295 0
-1676 -296 0
-1677 -297 0
-1678 -298 0
-1679 -299 0
-1680 -300 0
-1621 -301 0
-1622 -302 0
-1623 -303 0
-1624 -304 0
-1625 -305 0
-1626 -306 0
-1627 -307 0
-1628 -308 0
-1629 -309 0
-1630 -310 0
-1631 -311 0
-1632 -312 0
-1633 -313 0
-1634 -314 0
-1635 -315 0
-1636 -316 0
-1637 -317 0
-1638 -318 0
-1639 -319 0
-1640 -320 0
-1641 -321 0
-1642 -322 0
-1643 -323 0
-1644 -324 0
-1645 -325 0
-1646 -326 0
-1647 -327 0
-1648 -328 0
-1649 -329 0
-1650 -330 0
-1651 -331 0
-1652 -332 0
-1653 -333 0
-1654 -334 0
-1655 -335 0
-1656 -336 0
-1657 -337 0
-1658 -338 0
-1659 -339 0
-1660 -340 0
-1661 -341 0
-1662 -342 0
-1663 -343 0
-1664 -344 0
-1665 -345 0
-1666 -346 0
-1667 -347 0
-1668 -348 0
-1669 -349 0
-1670 -350 0
-1671 -351 0
-1672 -352 0
-1673 -353 0
-1674 -354 0
-1675 -355 0
-1676 -356 0
-1677 -357 0
-1678 -358 0
-1679 -359 0
-1680 -360 0
-1621 -481 0
-1622 -482 0
-1623 -483 0
-1624 -484 0
-1625 -485 0
-1626 -486 0
-1627 -487 0
-1628 -488 0
-1629 -489 0
-1630 -490 0
-1631 -491 0
-1632 -492 0
-1633 -493 0
-1634 -494 0
-1635 -495 0
-1636 -496 0
-1637 -497 0
-1638 -498 0
-1639 -499 0
-1640 -500 0
-1641 -501 0
-1642 -502 0
-1643 -503 0
-1644 -504 0
-1645 -505 0
-1646 -506 0
-1647 -507 0
-1648 -508 0
-1649 -509 0
-1650 -510 0
-1651 -511 0
-1652 -512 0
-1653 -513 0
-1654 -514 0
-1655 -515 0
-1656 -516 0
-1657 -517 0
-1658 -518 0
-1659 -519 0
-1660 -520 0
-1661 -521 0
-1662 -522 0
-1663 -523 0
-1664 -524 0
-1665 -525 0
-1666 -526 0
-1667 -527 0
-1668 -528 0
-1669 -529 0
-1670 -530 0
-1671 -531 0
-1672 -532 0
-1673 -533 0
-1674 -534 0
-1675 -535 0
-1676 -536 0
-1677 -537 0
-1678 -538 0
-1679 -539 0
-1680 -540 0
-1621 -1741 0
-1622 -1742 0
-1623 -1743 0
-1624 -1744 0
-1625 -1745 0
-1626 -1746 0
-1627 -1747 0
-1628 -1748 0
-1629 -1749 0
-1630 -1750 0
-1631 -1751 0
-1632 -1752 0
-1633 -1753 0
-1634 -1754 0
-1635 -1755 0
-1636 -1756 0
-1637 -1757 0
-1638 -1758 0
-1639 -1759 0
-1640 -1760 0
-1641 -1761 0
-1642 -1762 0
-1643 -1763 0
-1644 -1764 0
-1645 -1765 0
-1646 -1766 0
-1647 -1767 0
-1648 -1768 0
-1649 -1769 0
-1650 -1770 0
-1651 -1771 0
-1652 -1772 0
-1653 -1773 0
-1654 -1774 0
-1655 -1775 0
-1656 -1776 0
-1657 -1777 0
-1658 -1778 0
-1659 -1779 0
-1660 -1780 0
-1661 -1781 0
-1662 -1782 0
-1663 -1783 0
-1664 -1784 0
-1665 -1785 0
-1666 -1786 0
-1667 -1787 0
-1668 -1788 0
-1669 -1789 0
-1670 -1790 0
-1671 -1791 0
-1672 -1792 0
-1673 -1793 0
-1674 -1794 0
-1675 -1795 0
-1676 -1796 0
-1677 -1797 0
-1678 -1798 0
-1679 -1799 0
-1680 -1800 0
-1621 -1801 0
-1622 -1802 0
-1623 -1803 0
-1624 -1804 0
-1625 -1805 0
-1626 -1806 0
-1627 -1807 0
-1628 -1808 0
-1629 -1809 0
-1630 -1810 0
-1631 -1811 0
-1632 -1812 0
-1633 -1813 0
-1634 -1814 0
-1635 -1815 0
-1636 -1816 0
-1637 -1817 0
-1638 -1818 0
-1639 -1819 0
-1640 -1820 0
-1641 -1821 0
-1642 -1822 0
-1643 -1823 0
-1644 -1824 0
-1645 -1825 0
-1646 -1826 0
-1647 -1827 0
-1648 -1828 0
-1649 -1829 0
-1650 -1830 0
-1651 -1831 0
-1652 -1832 0
-1653 -1833 0
-1654 -1834 0
-1655 -1835 0
-1656 -1836 0
-1657 -1837 0
-1658 -1838 0
-1659 -1839 0
-1660 -1840 0
-1661 -1841 0
-1662 -1842 0
-1663 -1843 0
-1664 -1844 0
-1665 -1845 0
-1666 -1846 0
-1667 -1847 0
-1668 -1848 0
-1669 -1849 0
-1670 -1850 0
-1671 -1851 0
-1672 -1852 0
-1673 -1853 0
-1674 -1854 0
-1675 -1855 0
-1676 -1856 0
-1677 -1857 0
-1678 -1858 0
-1679 -1859 0
-1680 -1860 0
-1621 -2041 0
-1622 -2042 0
-1623 -2043 0
-1624 -2044 0
-1625 -2045 0
-1626 -2046 0
-1627 -2047 0
-1628 -2048 0
-1629 -2049 0
-1630 -2050 0
-1631 -2051 0
-1632 -2052 0
-1633 -2053 0
-1634 -2054 0
-1635 -2055 0
-1636 -2056 0
-1637 -2057 0
-1638 -2058 0
-1639 -2059 0
-1640 -2060 0
-1641 -2061 0
-1642 -2062 0
-1643 -2063 0
-1644 -2064 0
-1645 -2065 0
-1646 -2066 0
-1647 -2067 0
-1648 -2068 0
-1649 -2069 0
-1650 -2070 0
-1651 -2071 0
-1652 -2072 0
-1653 -2073 0
-1654 -2074 0
-1655 -2075 0
-1656 -2076 0
-1657 -2077 0
-1658 -2078 0
-1659 -2079 0
-1660 -2080 0
-1661 -2081 0
-1662 -2082 0
-1663 -2083 0
-1664 -2084 0
-1665 -2085 0
-1666 -2086 0
-1667 -2087 0
-1668 -2088 0
-1669 -2089 0
-1670 -2090 0
-1671 -2091 0
-1672 -2092 0
-1673 -2093 0
-1674 -2094 0
-1675 -2095 0
-1676 -2096 0
-1677 -2097 0
-1678 -2098 0
-1679 -2099 0
-1680 -2100 0
-1621 -2161 0
-1622 -2162 0
-1623 -2163 0
-1624 -2164 0
-1625 -2165 0
-1626 -2166 0
-1627 -2167 0
-1628 -2168 0
-1629 -2169 0
-1630 -2170 0
-1631 -2171 0
-1632 -2172 0
-1633 -2173 0
-1634 -2174 0
-1635 -2175 0
-1636 -2176 0
-1637 -2177 0
-1638 -2178 0
-1639 -2179 0
-1640 -2180 0
-1641 -2181 0
-1642 -2182 0
-1643 -2183 0
-1644 -2184 0
-1645 -2185 0
-1646 -2186 0
-1647 -2187 0
-1648 -2188 0
-1649 -2189 0
-1650 -2190 0
-1651 -2191 0
-1652 -2192 0
-1653 -2193 0
-1654 -2194 0
-1655 -2195 0
-1656 -2196 0
-1657 -2197 0
-1658 -2198 0
-1659 -2199 0
-1660 -2200 0
-1661 -2201 0
-1662 -2202 0
-1663 -2203 0
-1664 -2204 0
-1665 -2205 0
-1666 -2206 0
-1667 -2207 0
-1668 -2208 0
-1669 -2209 0
-1670 -2210 0
-1671 -2211 0
-1672 -2212 0
-1673 -2213 0
-1674 -2214 0
-1675 -2215 0
-1676 -2216 0
-1677 -2217 0
-1678 -2218 0
-1679 -2219 0
-1680 -2220 0
-1621 -2521 0
-1622 -2522 0
-1623 -2523 0
-1624 -2524 0
-1625 -2525 0
-1626 -2526 0
-1627 -2527 0
-1628 -2528 0
-1629 -2529 0
-1630 -2530 0
-1631 -2531 0
-1632 -2532 0
-1633 -2533 0
-1634 -2534 0
-1635 -2535 0
-1636 -2536 0
-1637 -2537 0
-1638 -2538 0
-1639 -2539 0
-1640 -2540 0
-1641 -2541 0
-1642 -2542 0
-1643 -2543 0
-1644 -2544 0
-1645 -2545 0
-1646 -2546 0
-1647 -2547 0
-1648 -2548 0
-1649 -2549 0
-1650 -2550 0
-1651 -2551 0
-1652 -2552 0
-1653 -2553 0
-1654 -2554 0
-1655 -2555 0
-1656 -2556 0
-1657 -2557 0
-1658 -2558 0
-1659 -2559 0
-1660 -2560 0
-1661 -2561 0
-1662 -2562 0
-1663 -2563 0
-1664 -2564 0
-1665 -2565 0
-1666 -2566 0
-1667 -2567 0
-1668 -2568 0
-1669 -2569 0
-1670 -2570 0
-1671 -2571 0
-1672 -2572 0
-1673 -2573 0
-1674 -2574 0
-1675 -2575 0
-1676 -2576 0
-1677 -2577 0
-1678 -2578 0
-1679 -2579 0
-1680 -2580 0
-1621 -2581 0
-1622 -2582 0
-1623 -2583 0
-1624 -2584 0
-1625 -2585 0
-1626 -2586 0
-1627 -2587 0
-1628 -2588 0
-1629 -2589 0
-1630 -2590 0
-1631 -2591 0
-1632 -2592 0
-1633 -2593 0
-1634 -2594 0
-1635 -2595 0
-1636 -2596 0
-1637 -2597 0
-1638 -2598 0
-1639 -2599 0
-1640 -2600 0
-1641 -2601 0
-1642 -2602 0
-1643 -2603 0
-1644 -2604 0
-1645 -2605 0
-1646 -2606 0
-1647 -2607 0
-1648 -2608 0
-1649 -2609 0
-1650 -2610 0
-1651 -2611 0
-1652 -2612 0
-1653 -2613 0
-1654 -2614 0
-1655 -2615 0
-1656 -2616 0
-1657 -2617 0
-1658 -2618 0
-1659 -2619 0
-1660 -2620 0
-1661 -2621 0
-1662 -2622 0
-1663 -2623 0
-1664 -2624 0
-1665 -2625 0
-1666 -2626 0
-1667 -2627 0
-1668 -2628 0
-1669 -2629 0
-1670 -2630 0
-1671 -2631 0
-1672 -2632 0
-1673 -2633 0
-1674 -2634 0
-1675 -2635 0
-1676 -2636 0
-1677 -2637 0
-1678 -2638 0
-1679 -2639 0
-1680 -2640 0
-1621 -2701 0
-1622 -2702 0
-1623 -2703 0
-1624 -2704 0
-1625 -2705 0
-1626 -2706 0
-1627 -2707 0
-1628 -2708 0
-1629 -2709 0
-1630 -2710 0
-1631 -2711 0
-1632 -2712 0
-1633 -2713 0
-1634 -2714 0
-1635 -2715 0
-1636 -2716 0
-1637 -2717 0
-1638 -2718 0
-1639 -2719 0
-1640 -2720 0
-1641 -2721 0
-1642 -2722 0
-1643 -2723 0
-1644 -2724 0
-1645 -2725 0
-1646 -2726 0
-1647 -2727 0
-1648 -2728 0
-1649 -2729 0
-1650 -2730 0
-1651 -2731 0
-1652 -2732 0
-1653 -2733 0
-1654 -2734 0
-1655 -2735 0
-1656 -2736 0
-1657 -2737 0
-1658 -2738 0
-1659 -2739 0
-1660 -2740 0
-1661 -2741 0
-1662 -2742 0
-1663 -2743 0
-1664 -2744 0
-1665 -2745 0
-1666 -2746 0
-1667 -2747 0
-1668 -2748 0
-1669 -2749 0
-1670 -2750 0
-1671 -2751 0
-1672 -2752 0
-1673 -2753 0
-1674 -2754 0
-1675 -2755 0
-1676 -2756 0
-1677 -2757 0
-1678 -2758 0
-1679 -2759 0
-1680 -2760 0
-1621 -3241 0
-1622 -3242 0
-1623 -3243 0
-1624 -3244 0
-1625 -3245 0
-1626 -3246 0
-1627 -3247 0
-1628 -3248 0
-1629 -3249 0
-1630 -3250 0
-1631 -3251 0
-1632 -3252 0
-1633 -3253 0
-1634 -3254 0
-1635 -3255 0
-1636 -3256 0
-1637 -3257 0
-1638 -3258 0
-1639 -3259 0
-1640 -3260 0
-1641 -3261 0
-1642 -3262 0
-1643 -3263 0
-1644 -3264 0
-1645 -3265 0
-1646 -3266 0
-1647 -3267 0
-1648 -3268 0
-1649 -3269 0
-1650 -3270 0
-1651 -3271 0
-1652 -3272 0
-1653 -3273 0
-1654 -3274 0
-1655 -3275 0
-1656 -3276 0
-1657 -3277 0
-1658 -3278 0
-1659 -3279 0
-1660 -3280 0
-1661 -3281 0
-1662 -3282 0
-1663 -3283 0
-1664 -3284 0
-1665 -3285 0
-1666 -3286 0
-1667 -3287 0
-1668 -3288 0
-1669 -3289 0
-1670 -3290 0
-1671 -3291 0
-1672 -3292 0
-1673 -3293 0
-1674 -3294 0
-1675 -3295 0
-1676 -3296 0
-1677 -3297 0
-1678 -3298 0
-1679 -3299 0
-1680 -3300 0
-1621 -3361 0
-1622 -3362 0
-1623 -3363 0
-1624 -3364 0
-1625 -3365 0
-1626 -3366 0
-1627 -3367 0
-1628 -3368 0
-1629 -3369 0
-1630 -3370 0
-1631 -3371 0
-1632 -3372 0
-1633 -3373 0
-1634 -3374 0
-1635 -3375 0
-1636 -3376 0
-1637 -3377 0
-1638 -3378 0
-1639 -3379 0
-1640 -3380 0
-1641 -3381 0
-1642 -3382 0
-1643 -3383 0
-1644 -3384 0
-1645 -3385 0
-1646 -3386 0
-1647 -3387 0
-1648 -3388 0
-1649 -3389 0
-1650 -3390 0
-1651 -3391 0
-1652 -3392 0
-1653 -3393 0
-1654 -3394 0
-1655 -3395 0
-1656 -3396 0
-1657 -3397 0
-1658 -3398 0
-1659 -3399 0
-1660 -3400 0
-1661 -3401 0
-1662 -3402 0
-1663 -3403 0
-1664 -3404 0
-1665 -3405 0
-1666 -3406 0
-1667 -3407 0
-1668 -3408 0
-1669 -3409 0
-1670 -3410 0
-1671 -3411 0
-1672 -3412 0
-1673 -3413 0
-1674 -3414 0
-1675 -3415 0
-1676 -3416 0
-1677 -3417 0
-1678 -3418 0
-1679 -3419 0
-1680 -3420 0
-1621 -3421 0
-1622 -3422 0
-1623 -3423 0
-1624 -3424 0
-1625 -3425 0
-1626 -3426 0
-1627 -3427 0
-1628 -3428 0
-1629 -3429 0
-1630 -3430 0
-1631 -3431 0
-1632 -3432 0
-1633 -3433 0
-1634 -3434 0
-1635 -3435 0
-1636 -3436 0
-1637 -3437 0
-1638 -3438 0
-1639 -3439 0
-1640 -3440 0
-1641 -3441 0
-1642 -3442 0
-1643 -3443 0
-1644 -3444 0
-1645 -3445 0
-1646 -3446 0
-1647 -3447 0
-1648 -3448 0
-1649 -3449 0
-1650 -3450 0
-1651 -3451 0
-1652 -3452 0
-1653 -3453 0
-1654 -3454 0
-1655 -3455 0
-1656 -3456 0
-1657 -3457 0
-1658 -3458 0
-1659 -3459 0
-1660 -3460 0
-1661 -3461 0
-1662 -3462 0
-1663 -3463 0
-1664 -3464 0
-1665 -3465 0
-1666 -3466 0
-1667 -3467 0
-1668 -3468 0
-1669 -3469 0
-1670 -3470 0
-1671 -3471 0
-1672 -3472 0
-1673 -3473 0
-1674 -3474 0
-1675 -3475 0
-1676 -3476 0
-1677 -3477 0
-1678 -3478 0
-1679 -3479 0
-1680 -3480 0
-1621 -3481 0
-1622 -3482 0
-1623 -3483 0
-1624 -3484 0
-1625 -3485 0
-1626 -3486 0
-1627 -3487 0
-1628 -3488 0
-1629 -3489 0
-1630 -3490 0
-1631 -3491 0
-1632 -3492 0
-1633 -3493 0
-1634 -3494 0
-1635 -3495 0
-1636 -3496 0
-1637 -3497 0
-1638 -3498 0
-1639 -3499 0
-1640 -3500 0
-1641 -3501 0
-1642 -3502 0
-1643 -3503 0
-1644 -3504 0
-1645 -3505 0
-1646 -3506 0
-1647 -3507 0
-1648 -3508 0
-1649 -3509 0
-1650 -3510 0
-1651 -3511 0
-1652 -3512 0
-1653 -3513 0
-1654 -3514 0
-1655 -3515 0
-1656 -3516 0
-1657 -3517 0
-1658 -3518 0
-1659 -3519 0
-1660 -3520 0
-1661 -3521 0
-1662 -3522 0
-1663 -3523 0
-1664 -3524 0
-1665 -3525 0
-1666 -3526 0
-1667 -3527 0
-1668 -3528 0
-1669 -3529 0
-1670 -3530 0
-1671 -3531 0
-1672 -3532 0
-1673 -3533 0
-1674 -3534 0
-1675 -3535 0
-1676 -3536 0
-1677 -3537 0
-1678 -3538 0
-1679 -3539 0
-1680 -3540 0
-1621 -3781 0
-1622 -3782 0
-1623 -3783 0
-1624 -3784 0
-1625 -3785 0
-1626 -3786 0
-1627 -3787 0
-1628 -3788 0
-1629 -3789 0
-1630 -3790 0
-1631 -3791 0
-1632 -3792 0
-1633 -3793 0
-1634 -3794 0
-1635 -3795 0
-1636 -3796 0
-1637 -3797 0
-1638 -3798 0
-1639 -3799 0
-1640 -3800 0
-1641 -3801 0
-1642 -3802 0
-1643 -3803 0
-1644 -3804 0
-1645 -3805 0
-1646 -3806 0
-1647 -3807 0
-1648 -3808 0
-1649 -3809 0
-1650 -3810 0
-1651 -3811 0
-1652 -3812 0
-1653 -3813 0
-1654 -3814 0
-1655 -3815 0
-1656 -3816 0
-1657 -3817 0
-1658 -3818 0
-1659 -3819 0
-1660 -3820 0
-1661 -3821 0
-1662 -3822 0
-1663 -3823 0
-1664 -3824 0
-1665 -3825 0
-1666 -3826 0
-1667 -3827 0
-1668 -3828 0
-1669 -3829 0
-1670 -3830 0
-1671 -3831 0
-1672 -3832 0
-1673 -3833 0
-1674 -3834 0
-1675 -3835 0
-1676 -3836 0
-1677 -3837 0
-1678 -3838 0
-1679 -3839 0
-1680 -3840 0
-1621 -4261 0
-1622 -4262 0
-1623 -4263 0
-1624 -4264 0
-1625 -4265 0
-1626 -4266 0
-1627 -4267 0
-1628 -4268 0
-1629 -4269 0
-1630 -4270 0
-1631 -4271 0
-1632 -4272 0
-1633 -4273 0
-1634 -4274 0
-1635 -4275 0
-1636 -4276 0
-1637 -4277 0
-1638 -4278 0
-1639 -4279 0
-1640 -4280 0
-1641 -4281 0
-1642 -4282 0
-1643 -4283 0
-1644 -4284 0
-1645 -4285 0
-1646 -4286 0
-1647 -4287 0
-1648 -4288 0
-1649 -4289 0
-1650 -4290 0
-1651 -4291 0
-1652 -4292 0
-1653 -4293 0
-1654 -4294 0
-1655 -4295 0
-1656 -4296 0
-1657 -4297 0
-1658 -4298 0
-1659 -4299 0
-1660 -4300 0
-1661 -4301 0
-1662 -4302 0
-1663 -4303 0
-1664 -4304 0
-1665 -4305 0
-1666 -4306 0
-1667 -4307 0
-1668 -4308 0
-1669 -4309 0
-1670 -4310 0
-1671 -4311 0
-1672 -4312 0
-1673 -4313 0
-1674 -4314 0
-1675 -4315 0
-1676 -4316 0
-1677 -4317 0
-1678 -4318 0
-1679 -4319 0
-1680 -4320 0
-1681 -841 0
-1682 -842 0
-1683 -843 0
-1684 -844 0
-1685 -845 0
-1686 -846 0
-1687 -847 0
-1688 -848 0
-1689 -849 0
-1690 -850 0
-1691 -851 0
-1692 -852 0
-1693 -853 0
-1694 -854 0
-1695 -855 0
-1696 -856 0
-1697 -857 0
-1698 -858 0
-1699 -859 0
-1700 -860 0
-1701 -861 0
-1702 -862 0
-1703 -863 0
-1704 -864 0
-1705 -865 0
-1706 -866 0
-1707 -867 0
-1708 -868 0
-1709 -869 0
-1710 -870 0
-1711 -871 0
-1712 -872 0
-1713 -873 0
-1714 -874 0
-1715 -875 0
-1716 -876 0
-1717 -877 0
-1718 -878 0
-1719 -879 0
-1720 -880 0
-1721 -881 0
-1722 -882 0
-1723 -883 0
-1724 -884 0
-1725 -885 0
-1726 -886 0
-1727 -887 0
-1728 -888 0
-1729 -889 0
-1730 -890 0
-1731 -891 0
-1732 -892 0
-1733 -893 0
-1734 -894 0
-1735 -895 0
-1736 -896 0
-1737 -897 0
-1738 -898 0
-1739 -899 0
-1740 -900 0
-1681 -1501 0
-1682 -1502 0
-1683 -1503 0
-1684 -1504 0
-1685 -1505 0
-1686 -1506 0
-1687 -1507 0
-1688 -1508 0
-1689 -1509 0
-1690 -1510 0
-1691 -1511 0
-1692 -1512 0
-1693 -1513 0
-1694 -1514 0
-1695 -1515 0
-1696 -1516 0
-1697 -1517 0
-1698 -1518 0
-1699 -1519 0
-1700 -1520 0
-1701 -1521 0
-1702 -1522 0
-1703 -1523 0
-1704 -1524 0
-1705 -1525 0
-1706 -1526 0
-1707 -1527 0
-1708 -1528 0
-1709 -1529 0
-1710 -1530 0
-1711 -1531 0
-1712 -1532 0
-1713 -1533 0
-1714 -1534 0
-1715 -1535 0
-1716 -1536 0
-1717 -1537 0
-1718 -1538 0
-1719 -1539 0
-1720 -1540 0
-1721 -1541 0
-1722 -1542 0
-1723 -1543 0
-1724 -1544 0
-1725 -1545 0
-1726 -1546 0
-1727 -1547 0
-1728 -1548 0
-1729 -1549 0
-1730 -1550 0
-1731 -1551 0
-1732 -1552 0
-1733 -1553 0
-1734 -1554 0
-1735 -1555 0
-1736 -1556 0
-1737 -1557 0
-1738 -1558 0
-1739 -1559 0
-1740 -1560 0
-1681 -2101 0
-1682 -2102 0
-1683 -2103 0
-1684 -2104 0
-1685 -2105 0
-1686 -2106 0
-1687 -2107 0
-1688 -2108 0
-1689 -2109 0
-1690 -2110 0
-1691 -2111 0
-1692 -2112 0
-1693 -2113 0
-1694 -2114 0
-1695 -2115 0
-1696 -2116 0
-1697 -2117 0
-1698 -2118 0
-1699 -2119 0
-1700 -2120 0
-1701 -2121 0
-1702 -2122 0
-1703 -2123 0
-1704 -2124 0
-1705 -2125 0
-1706 -2126 0
-1707 -2127 0
-1708 -2128 0
-1709 -2129 0
-1710 -2130 0
-1711 -2131 0
-1712 -2132 0
-1713 -2133 0
-1714 -2134 0
-1715 -2135 0
-1716 -2136 0
-1717 -2137 0
-1718 -2138 0
-1719 -2139 0
-1720 -2140 0
-1721 -2141 0
-1722 -2142 0
-1723 -2143 0
-1724 -2144 0
-1725 -2145 0
-1726 -2146 0
-1727 -2147 0
-1728 -2148 0
-1729 -2149 0
-1730 -2150 0
-1731 -2151 0
-1732 -2152 0
-1733 -2153 0
-1734 -2154 0
-1735 -2155 0
-1736 -2156 0
-1737 -2157 0
-1738 -2158 0
-1739 -2159 0
-1740 -2160 0
-1681 -2161 0
-1682 -2162 0
-1683 -2163 0
-1684 -2164 0
-1685 -2165 0
-1686 -2166 0
-1687 -2167 0
-1688 -2168 0
-1689 -2169 0
-1690 -2170 0
-1691 -2171 0
-1692 -2172 0
-1693 -2173 0
-1694 -2174 0
-1695 -2175 0
-1696 -2176 0
-1697 -2177 0
-1698 -2178 0
-1699 -2179 0
-1700 -2180 0
-1701 -2181 0
-1702 -2182 0
-1703 -2183 0
-1704 -2184 0
-1705 -2185 0
-1706 -2186 0
-1707 -2187 0
-1708 -2188 0
-1709 -2189 0
-1710 -2190 0
-1711 -2191 0
-1712 -2192 0
-1713 -2193 0
-1714 -2194 0
-1715 -2195 0
-1716 -2196 0
-1717 -2197 0
-1718 -2198 0
-1719 -2199 0
-1720 -2200 0
-1721 -2201 0
-1722 -2202 0
-1723 -2203 0
-1724 -2204 0
-1725 -2205 0
-1726 -2206 0
-1727 -2207 0
-1728 -2208 0
-1729 -2209 0
-1730 -2210 0
-1731 -2211 0
-1732 -2212 0
-1733 -2213 0
-1734 -2214 0
-1735 -2215 0
-1736 -2216 0
-1737 -2217 0
-1738 -2218 0
-1739 -2219 0
-1740 -2220 0
-1681 -2641 0
-1682 -2642 0
-1683 -2643 0
-1684 -2644 0
-1685 -2645 0
-1686 -2646 0
-1687 -2647 0
-1688 -2648 0
-1689 -2649 0
-1690 -2650 0
-1691 -2651 0
-1692 -2652 0
-1693 -2653 0
-1694 -2654 0
-1695 -2655 0
-1696 -2656 0
-1697 -2657 0
-1698 -2658 0
-1699 -2659 0
-1700 -2660 0
-1701 -2661 0
-1702 -2662 0
-1703 -2663 0
-1704 -2664 0
-1705 -2665 0
-1706 -2666 0
-1707 -2667 0
-1708 -2668 0
-1709 -2669 0
-1710 -2670 0
-1711 -2671 0
-1712 -2672 0
-1713 -2673 0
-1714 -2674 0
-1715 -2675 0
-1716 -2676 0
-1717 -2677 0
-1718 -2678 0
-1719 -2679 0
-1720 -2680 0
-1721 -2681 0
-1722 -2682 0
-1723 -2683 0
-1724 -2684 0
-1725 -2685 0
-1726 -2686 0
-1727 -2687 0
-1728 -2688 0
-1729 -2689 0
-1730 -2690 0
-1731 -2691 0
-1732 -2692 0
-1733 -2693 0
-1734 -2694 0
-1735 -2695 0
-1736 -2696 0
-1737 -2697 0
-1738 -2698 0
-1739 -2699 0
-1740 -2700 0
-1681 -3481 0
-1682 -3482 0
-1683 -3483 0
-1684 -3484 0
-1685 -3485 0
-1686 -3486 0
-1687 -3487 0
-1688 -3488 0
-1689 -3489 0
-1690 -3490 0
-1691 -3491 0
-1692 -3492 0
-1693 -3493 0
-1694 -3494 0
-1695 -3495 0
-1696 -3496 0
-1697 -3497 0
-1698 -3498 0
-1699 -3499 0
-1700 -3500 0
-1701 -3501 0
-1702 -3502 0
-1703 -3503 0
-1704 -3504 0
-1705 -3505 0
-1706 -3506 0
-1707 -3507 0
-1708 -3508 0
-1709 -3509 0
-1710 -3510 0
-1711 -3511 0
-1712 -3512 0
-1713 -3513 0
-1714 -3514 0
-1715 -3515 0
-1716 -3516 0
-1717 -3517 0
-1718 -3518 0
-1719 -3519 0
-1720 -3520 0
-1721 -3521 0
-1722 -3522 0
-1723 -3523 0
-1724 -3524 0
-1725 -3525 0
-1726 -3526 0
-1727 -3527 0
-1728 -3528 0
-1729 -3529 0
-1730 -3530 0
-1731 -3531 0
-1732 -3532 0
-1733 -3533 0
-1734 -3534 0
-1735 -3535 0
-1736 -3536 0
-1737 -3537 0
-1738 -3538 0
-1739 -3539 0
-1740 -3540 0
-1681 -4561 0
-1682 -4562 0
-1683 -4563 0
-1684 -4564 0
-1685 -4565 0
-1686 -4566 0
-1687 -4567 0
-1688 -4568 0
-1689 -4569 0
-1690 -4570 0
-1691 -4571 0
-1692 -4572 0
-1693 -4573 0
-1694 -4574 0
-1695 -4575 0
-1696 -4576 0
-1697 -4577 0
-1698 -4578 0
-1699 -4579 0
-1700 -4580 0
-1701 -4581 0
-1702 -4582 0
-1703 -4583 0
-1704 -4584 0
-1705 -4585 0
-1706 -4586 0
-1707 -4587 0
-1708 -4588 0
-1709 -4589 0
-1710 -4590 0
-1711 -4591 0
-1712 -4592 0
-1713 -4593 0
-1714 -4594 0
-1715 -4595 0
-1716 -4596 0
-1717 -4597 0
-1718 -4598 0
-1719 -4599 0
-1720 -4600 0
-1721 -4601 0
-1722 -4602 0
-1723 -4603 0
-1724 -4604 0
-1725 -4605 0
-1726 -4606 0
-1727 -4607 0
-1728 -4608 0
-1729 -4609 0
-1730 -4610 0
-1731 -4611 0
-1732 -4612 0
-1733 -4613 0
-1734 -4614 0
-1735 -4615 0
-1736 -4616 0
-1737 -4617 0
-1738 -4618 0
-1739 -4619 0
-1740 -4620 0
-1741 -1621 0
-1742 -1622 0
-1743 -1623 0
-1744 -1624 0
-1745 -1625 0
-1746 -1626 0
-1747 -1627 0
-1748 -1628 0
-1749 -1629 0
-1750 -1630 0
-1751 -1631 0
-1752 -1632 0
-1753 -1633 0
-1754 -1634 0
-1755 -1635 0
-1756 -1636 0
-1757 -1637 0
-1758 -1638 0
-1759 -1639 0
-1760 -1640 0
-1761 -1641 0
-1762 -1642 0
-1763 -1643 0
-1764 -1644 0
-1765 -1645 0
-1766 -1646 0
-1767 -1647 0
-1768 -1648 0
-1769 -1649 0
-1770 -1650 0
-1771 -1651 0
-1772 -1652 0
-1773 -1653 0
-1774 -1654 0
-1775 -1655 0
-1776 -1656 0
-1777 -1657 0
-1778 -1658 0
-1779 -1659 0
-1780 -1660 0
-1781 -1661 0
-1782 -1662 0
-1783 -1663 0
-1784 -1664 0
-1785 -1665 0
-1786 -1666 0
-1787 -1667 0
-1788 -1668 0
-1789 -1669 0
-1790 -1670 0
-1791 -1671 0
-1792 -1672 0
-1793 -1673 0
-1794 -1674 0
-1795 -1675 0
-1796 -1676 0
-1797 -1677 0
-1798 -1678 0
-1799 -1679 0
-1800 -1680 0
-1741 -2161 0
-1742 -2162 0
-1743 -2163 0
-1744 -2164 0
-1745 -2165 0
-1746 -2166 0
-1747 -2167 0
-1748 -2168 0
-1749 -2169 0
-1750 -2170 0
-1751 -2171 0
-1752 -2172 0
-1753 -2173 0
-1754 -2174 0
-1755 -2175 0
-1756 -2176 0
-1757 -2177 0
-1758 -2178 0
-1759 -2179 0
-1760 -2180 0
-1761 -2181 0
-1762 -2182 0
-1763 -2183 0
-1764 -2184 0
-1765 -2185 0
-1766 -2186 0
-1767 -2187 0
-1768 -2188 0
-1769 -2189 0
-1770 -2190 0
-1771 -2191 0
-1772 -2192 0
-1773 -2193 0
-1774 -2194 0
-1775 -2195 0
-1776 -2196 0
-1777 -2197 0
-1778 -2198 0
-1779 -2199 0
-1780 -2200 0
-1781 -2201 0
-1782 -2202 0
-1783 -2203 0
-1784 -2204 0
-1785 -2205 0
-1786 -2206 0
-1787 -2207 0
-1788 -2208 0
-1789 -2209 0
-1790 -2210 0
-1791 -2211 0
-1792 -2212 0
-1793 -2213 0
-1794 -2214 0
-1795 -2215 0
-1796 -2216 0
-1797 -2217 0
-1798 -2218 0
-1799 -2219 0
-1800 -2220 0
-1741 -3481 0
-1742 -3482 0
-1743 -3483 0
-1744 -3484 0
-1745 -3485 0
-1746 -3486 0
-1747 -3487 0
-1748 -3488 0
-1749 -3489 0
-1750 -3490 0
-1751 -3491 0
-1752 -3492 0
-1753 -3493 0
-1754 -3494 0
-1755 -3495 0
-1756 -3496 0
-1757 -3497 0
-1758 -3498 0
-1759 -3499 0
-1760 -3500 0
-1761 -3501 0
-1762 -3502 0
-1763 -3503 0
-1764 -3504 0
-1765 -3505 0
-1766 -3506 0
-1767 -3507 0
-1768 -3508 0
-1769 -3509 0
-1770 -3510 0
-1771 -3511 0
-1772 -3512 0
-1773 -3513 0
-1774 -3514 0
-1775 -3515 0
-1776 -3516 0
-1777 -3517 0
-1778 -3518 0
-1779 -3519 0
-1780 -3520 0
-1781 -3521 0
-1782 -3522 0
-1783 -3523 0
-1784 -3524 0
-1785 -3525 0
-1786 -3526 0
-1787 -3527 0
-1788 -3528 0
-1789 -3529 0
-1790 -3530 0
-1791 -3531 0
-1792 -3532 0
-1793 -3533 0
-1794 -3534 0
-1795 -3535 0
-1796 -3536 0
-1797 -3537 0
-1798 -3538 0
-1799 -3539 0
-1800 -3540 0
-1801 -1621 0
-1802 -1622 0
-1803 -1623 0
-1804 -1624 0
-1805 -1625 0
-1806 -1626 0
-1807 -1627 0
-1808 -1628 0
-1809 -1629 0
-1810 -1630 0
-1811 -1631 0
-1812 -1632 0
-1813 -1633 0
-1814 -1634 0
-1815 -1635 0
-1816 -1636 0
-1817 -1637 0
-1818 -1638 0
-1819 -1639 0
-1820 -1640 0
-1821 -1641 0
-1822 -1642 0
-1823 -1643 0
-1824 -1644 0
-1825 -1645 0
-1826 -1646 0
-1827 -1647 0
-1828 -1648 0
-1829 -1649 0
-1830 -1650 0
-1831 -1651 0
-1832 -1652 0
-1833 -1653 0
-1834 -1654 0
-1835 -1655 0
-1836 -1656 0
-1837 -1657 0
-1838 -1658 0
-1839 -1659 0
-1840 -1660 0
-1841 -1661 0
-1842 -1662 0
-1843 -1663 0
-1844 -1664 0
-1845 -1665 0
-1846 -1666 0
-1847 -1667 0
-1848 -1668 0
-1849 -1669 0
-1850 -1670 0
-1851 -1671 0
-1852 -1672 0
-1853 -1673 0
-1854 -1674 0
-1855 -1675 0
-1856 -1676 0
-1857 -1677 0
-1858 -1678 0
-1859 -1679 0
-1860 -1680 0
-1801 -2161 0
-1802 -2162 0
-1803 -2163 0
-1804 -2164 0
-1805 -2165 0
-1806 -2166 0
-1807 -2167 0
-1808 -2168 0
-1809 -2169 0
-1810 -2170 0
-1811 -2171 0
-1812 -2172 0
-1813 -2173 0
-1814 -2174 0
-1815 -2175 0
-1816 -2176 0
-1817 -2177 0
-1818 -2178 0
-1819 -2179 0
-1820 -2180 0
-1821 -2181 0
-1822 -2182 0
-1823 -2183 0
-1824 -2184 0
-1825 -2185 0
-1826 -2186 0
-1827 -2187 0
-1828 -2188 0
-1829 -2189 0
-1830 -2190 0
-1831 -2191 0
-1832 -2192 0
-1833 -2193 0
-1834 -2194 0
-1835 -2195 0
-1836 -2196 0
-1837 -2197 0
-1838 -2198 0
-1839 -2199 0
-1840 -2200 0
-1841 -2201 0
-1842 -2202 0
-1843 -2203 0
-1844 -2204 0
-1845 -2205 0
-1846 -2206 0
-1847 -2207 0
-1848 -2208 0
-1849 -2209 0
-1850 -2210 0
-1851 -2211 0
-1852 -2212 0
-1853 -2213 0
-1854 -2214 0
-1855 -2215 0
-1856 -2216 0
-1857 -2217 0
-1858 -2218 0
-1859 -2219 0
-1860 -2220 0
-1861 -781 0
-1862 -782 0
-1863 -783 0
-1864 -784 0
-1865 -785 0
-1866 -786 0
-1867 -787 0
-1868 -788 0
-1869 -789 0
-1870 -790 0
-1871 -791 0
-1872 -792 0
-1873 -793 0
-1874 -794 0
-1875 -795 0
-1876 -796 0
-1877 -797 0
-1878 -798 0
-1879 -799 0
-1880 -800 0
-1881 -801 0
-1882 -802 0
-1883 -803 0
-1884 -804 0
-1885 -805 0
-1886 -806 0
-1887 -807 0
-1888 -808 0
-1889 -809 0
-1890 -810 0
-1891 -811 0
-1892 -812 0
-1893 -813 0
-1894 -814 0
-1895 -815 0
-1896 -816 0
-1897 -817 0
-1898 -818 0
-1899 -819 0
-1900 -820 0
-1901 -821 0
-1902 -822 0
-1903 -823 0
-1904 -824 0
-1905 -825 0
-1906 -826 0
-1907 -827 0
-1908 -828 0
-1909 -829 0
-1910 -830 0
-1911 -831 0
-1912 -832 0
-1913 -833 0
-1914 -834 0
-1915 -835 0
-1916 -836 0
-1917 -837 0
-1918 -838 0
-1919 -839 0
-1920 -840 0
-1921 -121 0
-1922 -122 0
-1923 -123 0
-1924 -124 0
-1925 -125 0
-1926 -126 0
-1927 -127 0
-1928 -128 0
-1929 -129 0
-1930 -130 0
-1931 -131 0
-1932 -132 0
-1933 -133 0
-1934 -134 0
-1935 -135 0
-1936 -136 0
-1937 -137 0
-1938 -138 0
-1939 -139 0
-1940 -140 0
-1941 -141 0
-1942 -142 0
-1943 -143 0
-1944 -144 0
-1945 -145 0
-1946 -146 0
-1947 -147 0
-1948 -148 0
-1949 -149 0
-1950 -150 0
-1951 -151 0
-1952 -152 0
-1953 -153 0
-1954 -154 0
-1955 -155 0
-1956 -156 0
-1957 -157 0
-1958 -158 0
-1959 -159 0
-1960 -160 0
-1961 -161 0
-1962 -162 0
-1963 -163 0
-1964 -164 0
-1965 -165 0
-1966 -166 0
-1967 -167 0
-1968 -168 0
-1969 -169 0
-1970 -170 0
-1971 -171 0
-1972 -172 0
-1973 -173 0
-1974 -174 0
-1975 -175 0
-1976 -176 0
-1977 -177 0
-1978 -178 0
-1979 -179 0
-1980 -180 0
-1921 -841 0
-1922 -842 0
-1923 -843 0
-1924 -844 0
-1925 -845 0
-1926 -846 0
-1927 -847 0
-1928 -848 0
-1929 -849 0
-1930 -850 0
-1931 -851 0
-1932 -852 0
-1933 -853 0
-1934 -854 0
-1935 -855 0
-1936 -856 0
-1937 -857 0
-1938 -858 0
-1939 -859 0
-1940 -860 0
-1941 -861 0
-1942 -862 0
-1943 -863 0
-1944 -864 0
-1945 -865 0
-1946 -866 0
-1947 -867 0
-1948 -868 0
-1949 -869 0
-1950 -870 0
-1951 -871 0
-1952 -872 0
-1953 -873 0
-1954 -874 0
-1955 -875 0
-1956 -876 0
-1957 -877 0
-1958 -878 0
-1959 -879 0
-1960 -880 0
-1961 -881 0
-1962 -882 0
-1963 -883 0
-1964 -884 0
-1965 -885 0
-1966 -886 0
-1967 -887 0
-1968 -888 0
-1969 -889 0
-1970 -890 0
-1971 -891 0
-1972 -892 0
-1973 -893 0
-1974 -894 0
-1975 -895 0
-1976 -896 0
-1977 -897 0
-1978 -898 0
-1979 -899 0
-1980 -900 0
-1921 -1441 0
-1922 -1442 0
-1923 -1443 0
-1924 -1444 0
-1925 -1445 0
-1926 -1446 0
-1927 -1447 0
-1928 -1448 0
-1929 -1449 0
-1930 -1450 0
-1931 -1451 0
-1932 -1452 0
-1933 -1453 0
-1934 -1454 0
-1935 -1455 0
-1936 -1456 0
-1937 -1457 0
-1938 -1458 0
-1939 -1459 0
-1940 -1460 0
-1941 -1461 0
-1942 -1462 0
-1943 -1463 0
-1944 -1464 0
-1945 -1465 0
-1946 -1466 0
-1947 -1467 0
-1948 -1468 0
-1949 -1469 0
-1950 -1470 0
-1951 -1471 0
-1952 -1472 0
-1953 -1473 0
-1954 -1474 0
-1955 -1475 0
-1956 -1476 0
-1957 -1477 0
-1958 -1478 0
-1959 -1479 0
-1960 -1480 0
-1961 -1481 0
-1962 -1482 0
-1963 -1483 0
-1964 -1484 0
-1965 -1485 0
-1966 -1486 0
-1967 -1487 0
-1968 -1488 0
-1969 -1489 0
-1970 -1490 0
-1971 -1491 0
-1972 -1492 0
-1973 -1493 0
-1974 -1494 0
-1975 -1495 0
-1976 -1496 0
-1977 -1497 0
-1978 -1498 0
-1979 -1499 0
-1980 -1500 0
-1921 -1561 0
-1922 -1562 0
-1923 -1563 0
-1924 -1564 0
-1925 -1565 0
-1926 -1566 0
-1927 -1567 0
-1928 -1568 0
-1929 -1569 0
-1930 -1570 0
-1931 -1571 0
-1932 -1572 0
-1933 -1573 0
-1934 -1574 0
-1935 -1575 0
-1936 -1576 0
-1937 -1577 0
-1938 -1578 0
-1939 -1579 0
-1940 -1580 0
-1941 -1581 0
-1942 -1582 0
-1943 -1583 0
-1944 -1584 0
-1945 -1585 0
-1946 -1586 0
-1947 -1587 0
-1948 -1588 0
-1949 -1589 0
-1950 -1590 0
-1951 -1591 0
-1952 -1592 0
-1953 -1593 0
-1954 -1594 0
-1955 -1595 0
-1956 -1596 0
-1957 -1597 0
-1958 -1598 0
-1959 -1599 0
-1960 -1600 0
-1961 -1601 0
-1962 -1602 0
-1963 -1603 0
-1964 -1604 0
-1965 -1605 0
-1966 -1606 0
-1967 -1607 0
-1968 -1608 0
-1969 -1609 0
-1970 -1610 0
-1971 -1611 0
-1972 -1612 0
-1973 -1613 0
-1974 -1614 0
-1975 -1615 0
-1976 -1616 0
-1977 -1617 0
-1978 -1618 0
-1979 -1619 0
-1980 -1620 0
-1921 -2341 0
-1922 -2342 0
-1923 -2343 0
-1924 -2344 0
-1925 -2345 0
-1926 -2346 0
-1927 -2347 0
-1928 -2348 0
-1929 -2349 0
-1930 -2350 0
-1931 -2351 0
-1932 -2352 0
-1933 -2353 0
-1934 -2354 0
-1935 -2355 0
-1936 -2356 0
-1937 -2357 0
-1938 -2358 0
-1939 -2359 0
-1940 -2360 0
-1941 -2361 0
-1942 -2362 0
-1943 -2363 0
-1944 -2364 0
-1945 -2365 0
-1946 -2366 0
-1947 -2367 0
-1948 -2368 0
-1949 -2369 0
-1950 -2370 0
-1951 -2371 0
-1952 -2372 0
-1953 -2373 0
-1954 -2374 0
-1955 -2375 0
-1956 -2376 0
-1957 -2377 0
-1958 -2378 0
-1959 -2379 0
-1960 -2380 0
-1961 -2381 0
-1962 -2382 0
-1963 -2383 0
-1964 -2384 0
-1965 -2385 0
-1966 -2386 0
-1967 -2387 0
-1968 -2388 0
-1969 -2389 0
-1970 -2390 0
-1971 -2391 0
-1972 -2392 0
-1973 -2393 0
-1974 -2394 0
-1975 -2395 0
-1976 -2396 0
-1977 -2397 0
-1978 -2398 0
-1979 -2399 0
-1980 -2400 0
-1921 -3481 0
-1922 -3482 0
-1923 -3483 0
-1924 -3484 0
-1925 -3485 0
-1926 -3486 0
-1927 -3487 0
-1928 -3488 0
-1929 -3489 0
-1930 -3490 0
-1931 -3491 0
-1932 -3492 0
-1933 -3493 0
-1934 -3494 0
-1935 -3495 0
-1936 -3496 0
-1937 -3497 0
-1938 -3498 0
-1939 -3499 0
-1940 -3500 0
-1941 -3501 0
-1942 -3502 0
-1943 -3503 0
-1944 -3504 0
-1945 -3505 0
-1946 -3506 0
-1947 -3507 0
-1948 -3508 0
-1949 -3509 0
-1950 -3510 0
-1951 -3511 0
-1952 -3512 0
-1953 -3513 0
-1954 -3514 0
-1955 -3515 0
-1956 -3516 0
-1957 -3517 0
-1958 -3518 0
-1959 -3519 0
-1960 -3520 0
-1961 -3521 0
-1962 -3522 0
-1963 -3523 0
-1964 -3524 0
-1965 -3525 0
-1966 -3526 0
-1967 -3527 0
-1968 -3528 0
-1969 -3529 0
-1970 -3530 0
-1971 -3531 0
-1972 -3532 0
-1973 -3533 0
-1974 -3534 0
-1975 -3535 0
-1976 -3536 0
-1977 -3537 0
-1978 -3538 0
-1979 -3539 0
-1980 -3540 0
-1921 -3721 0
-1922 -3722 0
-1923 -3723 0
-1924 -3724 0
-1925 -3725 0
-1926 -3726 0
-1927 -3727 0
-1928 -3728 0
-1929 -3729 0
-1930 -3730 0
-1931 -3731 0
-1932 -3732 0
-1933 -3733 0
-1934 -3734 0
-1935 -3735 0
-1936 -3736 0
-1937 -3737 0
-1938 -3738 0
-1939 -3739 0
-1940 -3740 0
-1941 -3741 0
-1942 -3742 0
-1943 -3743 0
-1944 -3744 0
-1945 -3745 0
-1946 -3746 0
-1947 -3747 0
-1948 -3748 0
-1949 -3749 0
-1950 -3750 0
-1951 -3751 0
-1952 -3752 0
-1953 -3753 0
-1954 -3754 0
-1955 -3755 0
-1956 -3756 0
-1957 -3757 0
-1958 -3758 0
-1959 -3759 0
-1960 -3760 0
-1961 -3761 0
-1962 -3762 0
-1963 -3763 0
-1964 -3764 0
-1965 -3765 0
-1966 -3766 0
-1967 -3767 0
-1968 -3768 0
-1969 -3769 0
-1970 -3770 0
-1971 -3771 0
-1972 -3772 0
-1973 -3773 0
-1974 -3774 0
-1975 -3775 0
-1976 -3776 0
-1977 -3777 0
-1978 -3778 0
-1979 -3779 0
-1980 -3780 0
-1921 -4081 0
-1922 -4082 0
-1923 -4083 0
-1924 -4084 0
-1925 -4085 0
-1926 -4086 0
-1927 -4087 0
-1928 -4088 0
-1929 -4089 0
-1930 -4090 0
-1931 -4091 0
-1932 -4092 0
-1933 -4093 0
-1934 -4094 0
-1935 -4095 0
-1936 -4096 0
-1937 -4097 0
-1938 -4098 0
-1939 -4099 0
-1940 -4100 0
-1941 -4101 0
-1942 -4102 0
-1943 -4103 0
-1944 -4104 0
-1945 -4105 0
-1946 -4106 0
-1947 -4107 0
-1948 -4108 0
-1949 -4109 0
-1950 -4110 0
-1951 -4111 0
-1952 -4112 0
-1953 -4113 0
-1954 -4114 0
-1955 -4115 0
-1956 -4116 0
-1957 -4117 0
-1958 -4118 0
-1959 -4119 0
-1960 -4120 0
-1961 -4121 0
-1962 -4122 0
-1963 -4123 0
-1964 -4124 0
-1965 -4125 0
-1966 -4126 0
-1967 -4127 0
-1968 -4128 0
-1969 -4129 0
-1970 -4130 0
-1971 -4131 0
-1972 -4132 0
-1973 -4133 0
-1974 -4134 0
-1975 -4135 0
-1976 -4136 0
-1977 -4137 0
-1978 -4138 0
-1979 -4139 0
-1980 -4140 0
-1921 -4321 0
-1922 -4322 0
-1923 -4323 0
-1924 -4324 0
-1925 -4325 0
-1926 -4326 0
-1927 -4327 0
-1928 -4328 0
-1929 -4329 0
-1930 -4330 0
-1931 -4331 0
-1932 -4332 0
-1933 -4333 0
-1934 -4334 0
-1935 -4335 0
-1936 -4336 0
-1937 -4337 0
-1938 -4338 0
-1939 -4339 0
-1940 -4340 0
-1941 -4341 0
-1942 -4342 0
-1943 -4343 0
-1944 -4344 0
-1945 -4345 0
-1946 -4346 0
-1947 -4347 0
-1948 -4348 0
-1949 -4349 0
-1950 -4350 0
-1951 -4351 0
-1952 -4352 0
-1953 -4353 0
-1954 -4354 0
-1955 -4355 0
-1956 -4356 0
-1957 -4357 0
-1958 -4358 0
-1959 -4359 0
-1960 -4360 0
-1961 -4361 0
-1962 -4362 0
-1963 -4363 0
-1964 -4364 0
-1965 -4365 0
-1966 -4366 0
-1967 -4367 0
-1968 -4368 0
-1969 -4369 0
-1970 -4370 0
-1971 -4371 0
-1972 -4372 0
-1973 -4373 0
-1974 -4374 0
-1975 -4375 0
-1976 -4376 0
-1977 -4377 0
-1978 -4378 0
-1979 -4379 0
-1980 -4380 0
-1981 -181 0
-1982 -182 0
-1983 -183 0
-1984 -184 0
-1985 -185 0
-1986 -186 0
-1987 -187 0
-1988 -188 0
-1989 -189 0
-1990 -190 0
-1991 -191 0
-1992 -192 0
-1993 -193 0
-1994 -194 0
-1995 -195 0
-1996 -196 0
-1997 -197 0
-1998 -198 0
-1999 -199 0
-2000 -200 0
-2001 -201 0
-2002 -202 0
-2003 -203 0
-2004 -204 0
-2005 -205 0
-2006 -206 0
-2007 -207 0
-2008 -208 0
-2009 -209 0
-2010 -210 0
-2011 -211 0
-2012 -212 0
-2013 -213 0
-2014 -214 0
-2015 -215 0
-2016 -216 0
-2017 -217 0
-2018 -218 0
-2019 -219 0
-2020 -220 0
-2021 -221 0
-2022 -222 0
-2023 -223 0
-2024 -224 0
-2025 -225 0
-2026 -226 0
-2027 -227 0
-2028 -228 0
-2029 -229 0
-2030 -230 0
-2031 -231 0
-2032 -232 0
-2033 -233 0
-2034 -234 0
-2035 -235 0
-2036 -236 0
-2037 -237 0
-2038 -238 0
-2039 -239 0
-2040 -240 0
-1981 -361 0
-1982 -362 0
-1983 -363 0
-1984 -364 0
-1985 -365 0
-1986 -366 0
-1987 -367 0
-1988 -368 0
-1989 -369 0
-1990 -370 0
-1991 -371 0
-1992 -372 0
-1993 -373 0
-1994 -374 0
-1995 -375 0
-1996 -376 0
-1997 -377 0
-1998 -378 0
-1999 -379 0
-2000 -380 0
-2001 -381 0
-2002 -382 0
-2003 -383 0
-2004 -384 0
-2005 -385 0
-2006 -386 0
-2007 -387 0
-2008 -388 0
-2009 -389 0
-2010 -390 0
-2011 -391 0
-2012 -392 0
-2013 -393 0
-2014 -394 0
-2015 -395 0
-2016 -396 0
-2017 -397 0
-2018 -398 0
-2019 -399 0
-2020 -400 0
-2021 -401 0
-2022 -402 0
-2023 -403 0
-2024 -404 0
-2025 -405 0
-2026 -406 0
-2027 -407 0
-2028 -408 0
-2029 -409 0
-2030 -410 0
-2031 -411 0
-2032 -412 0
-2033 -413 0
-2034 -414 0
-2035 -415 0
-2036 -416 0
-2037 -417 0
-2038 -418 0
-2039 -419 0
-2040 -420 0
-1981 -481 0
-1982 -482 0
-1983 -483 0
-1984 -484 0
-1985 -485 0
-1986 -486 0
-1987 -487 0
-1988 -488 0
-1989 -489 0
-1990 -490 0
-1991 -491 0
-1992 -492 0
-1993 -493 0
-1994 -494 0
-1995 -495 0
-1996 -496 0
-1997 -497 0
-1998 -498 0
-1999 -499 0
-2000 -500 0
-2001 -501 0
-2002 -502 0
-2003 -503 0
-2004 -504 0
-2005 -505 0
-2006 -506 0
-2007 -507 0
-2008 -508 0
-2009 -509 0
-2010 -510 0
-2011 -511 0
-2012 -512 0
-2013 -513 0
-2014 -514 0
-2015 -515 0
-2016 -516 0
-2017 -517 0
-2018 -518 0
-2019 -519 0
-2020 -520 0
-2021 -521 0
-2022 -522 0
-2023 -523 0
-2024 -524 0
-2025 -525 0
-2026 -526 0
-2027 -527 0
-2028 -528 0
-2029 -529 0
-2030 -530 0
-2031 -531 0
-2032 -532 0
-2033 -533 0
-2034 -534 0
-2035 -535 0
-2036 -536 0
-2037 -537 0
-2038 -538 0
-2039 -539 0
-2040 -540 0
-1981 -841 0
-1982 -842 0
-1983 -843 0
-1984 -844 0
-1985 -845 0
-1986 -846 0
-1987 -847 0
-1988 -848 0
-1989 -849 0
-1990 -850 0
-1991 -851 0
-1992 -852 0
-1993 -853 0
-1994 -854 0
-1995 -855 0
-1996 -856 0
-1997 -857 0
-1998 -858 0
-1999 -859 0
-2000 -860 0
-2001 -861 0
-2002 -862 0
-2003 -863 0
-2004 -864 0
-2005 -865 0
-2006 -866 0
-2007 -867 0
-2008 -868 0
-2009 -869 0
-2010 -870 0
-2011 -871 0
-2012 -872 0
-2013 -873 0
-2014 -874 0
-2015 -875 0
-2016 -876 0
-2017 -877 0
-2018 -878 0
-2019 -879 0
-2020 -880 0
-2021 -881 0
-2022 -882 0
-2023 -883 0
-2024 -884 0
-2025 -885 0
-2026 -886 0
-2027 -887 0
-2028 -888 0
-2029 -889 0
-2030 -890 0
-2031 -891 0
-2032 -892 0
-2033 -893 0
-2034 -894 0
-2035 -895 0
-2036 -896 0
-2037 -897 0
-2038 -898 0
-2039 -899 0
-2040 -900 0
-1981 -1081 0
-1982 -1082 0
-1983 -1083 0
-1984 -1084 0
-1985 -1085 0
-1986 -1086 0
-1987 -1087 0
-1988 -1088 0
-1989 -1089 0
-1990 -1090 0
-1991 -1091 0
-1992 -1092 0
-1993 -1093 0
-1994 -1094 0
-1995 -1095 0
-1996 -1096 0
-1997 -1097 0
-1998 -1098 0
-1999 -1099 0
-2000 -1100 0
-2001 -1101 0
-2002 -1102 0
-2003 -1103 0
-2004 -1104 0
-2005 -1105 0
-2006 -1106 0
-2007 -1107 0
-2008 -1108 0
-2009 -1109 0
-2010 -1110 0
-2011 -1111 0
-2012 -1112 0
-2013 -1113 0
-2014 -1114 0
-2015 -1115 0
-2016 -1116 0
-2017 -1117 0
-2018 -1118 0
-2019 -1119 0
-2020 -1120 0
-2021 -1121 0
-2022 -1122 0
-2023 -1123 0
-2024 -1124 0
-2025 -1125 0
-2026 -1126 0
-2027 -1127 0
-2028 -1128 0
-2029 -1129 0
-2030 -1130 0
-2031 -1131 0
-2032 -1132 0
-2033 -1133 0
-2034 -1134 0
-2035 -1135 0
-2036 -1136 0
-2037 -1137 0
-2038 -1138 0
-2039 -1139 0
-2040 -1140 0
-1981 -2221 0
-1982 -2222 0
-1983 -2223 0
-1984 -2224 0
-1985 -2225 0
-1986 -2226 0
-1987 -2227 0
-1988 -2228 0
-1989 -2229 0
-1990 -2230 0
-1991 -2231 0
-1992 -2232 0
-1993 -2233 0
-1994 -2234 0
-1995 -2235 0
-1996 -2236 0
-1997 -2237 0
-1998 -2238 0
-1999 -2239 0
-2000 -2240 0
-2001 -2241 0
-2002 -2242 0
-2003 -2243 0
-2004 -2244 0
-2005 -2245 0
-2006 -2246 0
-2007 -2247 0
-2008 -2248 0
-2009 -2249 0
-2010 -2250 0
-2011 -2251 0
-2012 -2252 0
-2013 -2253 0
-2014 -2254 0
-2015 -2255 0
-2016 -2256 0
-2017 -2257 0
-2018 -2258 0
-2019 -2259 0
-2020 -2260 0
-2021 -2261 0
-2022 -2262 0
-2023 -2263 0
-2024 -2264 0
-2025 -2265 0
-2026 -2266 0
-2027 -2267 0
-2028 -2268 0
-2029 -2269 0
-2030 -2270 0
-2031 -2271 0
-2032 -2272 0
-2033 -2273 0
-2034 -2274 0
-2035 -2275 0
-2036 -2276 0
-2037 -2277 0
-2038 -2278 0
-2039 -2279 0
-2040 -2280 0
-1981 -2761 0
-1982 -2762 0
-1983 -2763 0
-1984 -2764 0
-1985 -2765 0
-1986 -2766 0
-1987 -2767 0
-1988 -2768 0
-1989 -2769 0
-1990 -2770 0
-1991 -2771 0
-1992 -2772 0
-1993 -2773 0
-1994 -2774 0
-1995 -2775 0
-1996 -2776 0
-1997 -2777 0
-1998 -2778 0
-1999 -2779 0
-2000 -2780 0
-2001 -2781 0
-2002 -2782 0
-2003 -2783 0
-2004 -2784 0
-2005 -2785 0
-2006 -2786 0
-2007 -2787 0
-2008 -2788 0
-2009 -2789 0
-2010 -2790 0
-2011 -2791 0
-2012 -2792 0
-2013 -2793 0
-2014 -2794 0
-2015 -2795 0
-2016 -2796 0
-2017 -2797 0
-2018 -2798 0
-2019 -2799 0
-2020 -2800 0
-2021 -2801 0
-2022 -2802 0
-2023 -2803 0
-2024 -2804 0
-2025 -2805 0
-2026 -2806 0
-2027 -2807 0
-2028 -2808 0
-2029 -2809 0
-2030 -2810 0
-2031 -2811 0
-2032 -2812 0
-2033 -2813 0
-2034 -2814 0
-2035 -2815 0
-2036 -2816 0
-2037 -2817 0
-2038 -2818 0
-2039 -2819 0
-2040 -2820 0
-1981 -2821 0
-1982 -2822 0
-1983 -2823 0
-1984 -2824 0
-1985 -2825 0
-1986 -2826 0
-1987 -2827 0
-1988 -2828 0
-1989 -2829 0
-1990 -2830 0
-1991 -2831 0
-1992 -2832 0
-1993 -2833 0
-1994 -2834 0
-1995 -2835 0
-1996 -2836 0
-1997 -2837 0
-1998 -2838 0
-1999 -2839 0
-2000 -2840 0
-2001 -2841 0
-2002 -2842 0
-2003 -2843 0
-2004 -2844 0
-2005 -2845 0
-2006 -2846 0
-2007 -2847 0
-2008 -2848 0
-2009 -2849 0
-2010 -2850 0
-2011 -2851 0
-2012 -2852 0
-2013 -2853 0
-2014 -2854 0
-2015 -2855 0
-2016 -2856 0
-2017 -2857 0
-2018 -2858 0
-2019 -2859 0
-2020 -2860 0
-2021 -2861 0
-2022 -2862 0
-2023 -2863 0
-2024 -2864 0
-2025 -2865 0
-2026 -2866 0
-2027 -2867 0
-2028 -2868 0
-2029 -2869 0
-2030 -2870 0
-2031 -2871 0
-2032 -2872 0
-2033 -2873 0
-2034 -2874 0
-2035 -2875 0
-2036 -2876 0
-2037 -2877 0
-2038 -2878 0
-2039 -2879 0
-2040 -2880 0
-1981 -2941 0
-1982 -2942 0
-1983 -2943 0
-1984 -2944 0
-1985 -2945 0
-1986 -2946 0
-1987 -2947 0
-1988 -2948 0
-1989 -2949 0
-1990 -2950 0
-1991 -2951 0
-1992 -2952 0
-1993 -2953 0
-1994 -2954 0
-1995 -2955 0
-1996 -2956 0
-1997 -2957 0
-1998 -2958 0
-1999 -2959 0
-2000 -2960 0
-2001 -2961 0
-2002 -2962 0
-2003 -2963 0
-2004 -2964 0
-2005 -2965 0
-2006 -2966 0
-2007 -2967 0
-2008 -2968 0
-2009 -2969 0
-2010 -2970 0
-2011 -2971 0
-2012 -2972 0
-2013 -2973 0
-2014 -2974 0
-2015 -2975 0
-2016 -2976 0
-2017 -2977 0
-2018 -2978 0
-2019 -2979 0
-2020 -2980 0
-2021 -2981 0
-2022 -2982 0
-2023 -2983 0
-2024 -2984 0
-2025 -2985 0
-2026 -2986 0
-2027 -2987 0
-2028 -2988 0
-2029 -2989 0
-2030 -2990 0
-2031 -2991 0
-2032 -2992 0
-2033 -2993 0
-2034 -2994 0
-2035 -2995 0
-2036 -2996 0
-2037 -2997 0
-2038 -2998 0
-2039 -2999 0
-2040 -3000 0
-1981 -3901 0
-1982 -3902 0
-1983 -3903 0
-1984 -3904 0
-1985 -3905 0
-1986 -3906 0
-1987 -3907 0
-1988 -3908 0
-1989 -3909 0
-1990 -3910 0
-1991 -3911 0
-1992 -3912 0
-1993 -3913 0
-1994 -3914 0
-1995 -3915 0
-1996 -3916 0
-1997 -3917 0
-1998 -3918 0
-1999 -3919 0
-2000 -3920 0
-2001 -3921 0
-2002 -3922 0
-2003 -3923 0
-2004 -3924 0
-2005 -3925 0
-2006 -3926 0
-2007 -3927 0
-2008 -3928 0
-2009 -3929 0
-2010 -3930 0
-2011 -3931 0
-2012 -3932 0
-2013 -3933 0
-2014 -3934 0
-2015 -3935 0
-2016 -3936 0
-2017 -3937 0
-2018 -3938 0
-2019 -3939 0
-2020 -3940 0
-2021 -3941 0
-2022 -3942 0
-2023 -3943 0
-2024 -3944 0
-2025 -3945 0
-2026 -3946 0
-2027 -3947 0
-2028 -3948 0
-2029 -3949 0
-2030 -3950 0
-2031 -3951 0
-2032 -3952 0
-2033 -3953 0
-2034 -3954 0
-2035 -3955 0
-2036 -3956 0
-2037 -3957 0
-2038 -3958 0
-2039 -3959 0
-2040 -3960 0
-1981 -4021 0
-1982 -4022 0
-1983 -4023 0
-1984 -4024 0
-1985 -4025 0
-1986 -4026 0
-1987 -4027 0
-1988 -4028 0
-1989 -4029 0
-1990 -4030 0
-1991 -4031 0
-1992 -4032 0
-1993 -4033 0
-1994 -4034 0
-1995 -4035 0
-1996 -4036 0
-1997 -4037 0
-1998 -4038 0
-1999 -4039 0
-2000 -4040 0
-2001 -4041 0
-2002 -4042 0
-2003 -4043 0
-2004 -4044 0
-2005 -4045 0
-2006 -4046 0
-2007 -4047 0
-2008 -4048 0
-2009 -4049 0
-2010 -4050 0
-2011 -4051 0
-2012 -4052 0
-2013 -4053 0
-2014 -4054 0
-2015 -4055 0
-2016 -4056 0
-2017 -4057 0
-2018 -4058 0
-2019 -4059 0
-2020 -4060 0
-2021 -4061 0
-2022 -4062 0
-2023 -4063 0
-2024 -4064 0
-2025 -4065 0
-2026 -4066 0
-2027 -4067 0
-2028 -4068 0
-2029 -4069 0
-2030 -4070 0
-2031 -4071 0
-2032 -4072 0
-2033 -4073 0
-2034 -4074 0
-2035 -4075 0
-2036 -4076 0
-2037 -4077 0
-2038 -4078 0
-2039 -4079 0
-2040 -4080 0
-1981 -4261 0
-1982 -4262 0
-1983 -4263 0
-1984 -4264 0
-1985 -4265 0
-1986 -4266 0
-1987 -4267 0
-1988 -4268 0
-1989 -4269 0
-1990 -4270 0
-1991 -4271 0
-1992 -4272 0
-1993 -4273 0
-1994 -4274 0
-1995 -4275 0
-1996 -4276 0
-1997 -4277 0
-1998 -4278 0
-1999 -4279 0
-2000 -4280 0
-2001 -4281 0
-2002 -4282 0
-2003 -4283 0
-2004 -4284 0
-2005 -4285 0
-2006 -4286 0
-2007 -4287 0
-2008 -4288 0
-2009 -4289 0
-2010 -4290 0
-2011 -4291 0
-2012 -4292 0
-2013 -4293 0
-2014 -4294 0
-2015 -4295 0
-2016 -4296 0
-2017 -4297 0
-2018 -4298 0
-2019 -4299 0
-2020 -4300 0
-2021 -4301 0
-2022 -4302 0
-2023 -4303 0
-2024 -4304 0
-2025 -4305 0
-2026 -4306 0
-2027 -4307 0
-2028 -4308 0
-2029 -4309 0
-2030 -4310 0
-2031 -4311 0
-2032 -4312 0
-2033 -4313 0
-2034 -4314 0
-2035 -4315 0
-2036 -4316 0
-2037 -4317 0
-2038 -4318 0
-2039 -4319 0
-2040 -4320 0
-1981 -4681 0
-1982 -4682 0
-1983 -4683 0
-1984 -4684 0
-1985 -4685 0
-1986 -4686 0
-1987 -4687 0
-1988 -4688 0
-1989 -4689 0
-1990 -4690 0
-1991 -4691 0
-1992 -4692 0
-1993 -4693 0
-1994 -4694 0
-1995 -4695 0
-1996 -4696 0
-1997 -4697 0
-1998 -4698 0
-1999 -4699 0
-2000 -4700 0
-2001 -4701 0
-2002 -4702 0
-2003 -4703 0
-2004 -4704 0
-2005 -4705 0
-2006 -4706 0
-2007 -4707 0
-2008 -4708 0
-2009 -4709 0
-2010 -4710 0
-2011 -4711 0
-2012 -4712 0
-2013 -4713 0
-2014 -4714 0
-2015 -4715 0
-2016 -4716 0
-2017 -4717 0
-2018 -4718 0
-2019 -4719 0
-2020 -4720 0
-2021 -4721 0
-2022 -4722 0
-2023 -4723 0
-2024 -4724 0
-2025 -4725 0
-2026 -4726 0
-2027 -4727 0
-2028 -4728 0
-2029 -4729 0
-2030 -4730 0
-2031 -4731 0
-2032 -4732 0
-2033 -4733 0
-2034 -4734 0
-2035 -4735 0
-2036 -4736 0
-2037 -4737 0
-2038 -4738 0
-2039 -4739 0
-2040 -4740 0
-2041 -301 0
-2042 -302 0
-2043 -303 0
-2044 -304 0
-2045 -305 0
-2046 -306 0
-2047 -307 0
-2048 -308 0
-2049 -309 0
-2050 -310 0
-2051 -311 0
-2052 -312 0
-2053 -313 0
-2054 -314 0
-2055 -315 0
-2056 -316 0
-2057 -317 0
-2058 -318 0
-2059 -319 0
-2060 -320 0
-2061 -321 0
-2062 -322 0
-2063 -323 0
-2064 -324 0
-2065 -325 0
-2066 -326 0
-2067 -327 0
-2068 -328 0
-2069 -329 0
-2070 -330 0
-2071 -331 0
-2072 -332 0
-2073 -333 0
-2074 -334 0
-2075 -335 0
-2076 -336 0
-2077 -337 0
-2078 -338 0
-2079 -339 0
-2080 -340 0
-2081 -341 0
-2082 -342 0
-2083 -343 0
-2084 -344 0
-2085 -345 0
-2086 -346 0
-2087 -347 0
-2088 -348 0
-2089 -349 0
-2090 -350 0
-2091 -351 0
-2092 -352 0
-2093 -353 0
-2094 -354 0
-2095 -355 0
-2096 -356 0
-2097 -357 0
-2098 -358 0
-2099 -359 0
-2100 -360 0
-2041 -481 0
-2042 -482 0
-2043 -483 0
-2044 -484 0
-2045 -485 0
-2046 -486 0
-2047 -487 0
-2048 -488 0
-2049 -489 0
-2050 -490 0
-2051 -491 0
-2052 -492 0
-2053 -493 0
-2054 -494 0
-2055 -495 0
-2056 -496 0
-2057 -497 0
-2058 -498 0
-2059 -499 0
-2060 -500 0
-2061 -501 0
-2062 -502 0
-2063 -503 0
-2064 -504 0
-2065 -505 0
-2066 -506 0
-2067 -507 0
-2068 -508 0
-2069 -509 0
-2070 -510 0
-2071 -511 0
-2072 -512 0
-2073 -513 0
-2074 -514 0
-2075 -515 0
-2076 -516 0
-2077 -517 0
-2078 -518 0
-2079 -519 0
-2080 -520 0
-2081 -521 0
-2082 -522 0
-2083 -523 0
-2084 -524 0
-2085 -525 0
-2086 -526 0
-2087 -527 0
-2088 -528 0
-2089 -529 0
-2090 -530 0
-2091 -531 0
-2092 -532 0
-2093 -533 0
-2094 -534 0
-2095 -535 0
-2096 -536 0
-2097 -537 0
-2098 -538 0
-2099 -539 0
-2100 -540 0
-2041 -901 0
-2042 -902 0
-2043 -903 0
-2044 -904 0
-2045 -905 0
-2046 -906 0
-2047 -907 0
-2048 -908 0
-2049 -909 0
-2050 -910 0
-2051 -911 0
-2052 -912 0
-2053 -913 0
-2054 -914 0
-2055 -915 0
-2056 -916 0
-2057 -917 0
-2058 -918 0
-2059 -919 0
-2060 -920 0
-2061 -921 0
-2062 -922 0
-2063 -923 0
-2064 -924 0
-2065 -925 0
-2066 -926 0
-2067 -927 0
-2068 -928 0
-2069 -929 0
-2070 -930 0
-2071 -931 0
-2072 -932 0
-2073 -933 0
-2074 -934 0
-2075 -935 0
-2076 -936 0
-2077 -937 0
-2078 -938 0
-2079 -939 0
-2080 -940 0
-2081 -941 0
-2082 -942 0
-2083 -943 0
-2084 -944 0
-2085 -945 0
-2086 -946 0
-2087 -947 0
-2088 -948 0
-2089 -949 0
-2090 -950 0
-2091 -951 0
-2092 -952 0
-2093 -953 0
-2094 -954 0
-2095 -955 0
-2096 -956 0
-2097 -957 0
-2098 -958 0
-2099 -959 0
-2100 -960 0
-2041 -1621 0
-2042 -1622 0
-2043 -1623 0
-2044 -1624 0
-2045 -1625 0
-2046 -1626 0
-2047 -1627 0
-2048 -1628 0
-2049 -1629 0
-2050 -1630 0
-2051 -1631 0
-2052 -1632 0
-2053 -1633 0
-2054 -1634 0
-2055 -1635 0
-2056 -1636 0
-2057 -1637 0
-2058 -1638 0
-2059 -1639 0
-2060 -1640 0
-2061 -1641 0
-2062 -1642 0
-2063 -1643 0
-2064 -1644 0
-2065 -1645 0
-2066 -1646 0
-2067 -1647 0
-2068 -1648 0
-2069 -1649 0
-2070 -1650 0
-2071 -1651 0
-2072 -1652 0
-2073 -1653 0
-2074 -1654 0
-2075 -1655 0
-2076 -1656 0
-2077 -1657 0
-2078 -1658 0
-2079 -1659 0
-2080 -1660 0
-2081 -1661 0
-2082 -1662 0
-2083 -1663 0
-2084 -1664 0
-2085 -1665 0
-2086 -1666 0
-2087 -1667 0
-2088 -1668 0
-2089 -1669 0
-2090 -1670 0
-2091 -1671 0
-2092 -1672 0
-2093 -1673 0
-2094 -1674 0
-2095 -1675 0
-2096 -1676 0
-2097 -1677 0
-2098 -1678 0
-2099 -1679 0
-2100 -1680 0
-2041 -2161 0
-2042 -2162 0
-2043 -2163 0
-2044 -2164 0
-2045 -2165 0
-2046 -2166 0
-2047 -2167 0
-2048 -2168 0
-2049 -2169 0
-2050 -2170 0
-2051 -2171 0
-2052 -2172 0
-2053 -2173 0
-2054 -2174 0
-2055 -2175 0
-2056 -2176 0
-2057 -2177 0
-2058 -2178 0
-2059 -2179 0
-2060 -2180 0
-2061 -2181 0
-2062 -2182 0
-2063 -2183 0
-2064 -2184 0
-2065 -2185 0
-2066 -2186 0
-2067 -2187 0
-2068 -2188 0
-2069 -2189 0
-2070 -2190 0
-2071 -2191 0
-2072 -2192 0
-2073 -2193 0
-2074 -2194 0
-2075 -2195 0
-2076 -2196 0
-2077 -2197 0
-2078 -2198 0
-2079 -2199 0
-2080 -2200 0
-2081 -2201 0
-2082 -2202 0
-2083 -2203 0
-2084 -2204 0
-2085 -2205 0
-2086 -2206 0
-2087 -2207 0
-2088 -2208 0
-2089 -2209 0
-2090 -2210 0
-2091 -2211 0
-2092 -2212 0
-2093 -2213 0
-2094 -2214 0
-2095 -2215 0
-2096 -2216 0
-2097 -2217 0
-2098 -2218 0
-2099 -2219 0
-2100 -2220 0
-2041 -2581 0
-2042 -2582 0
-2043 -2583 0
-2044 -2584 0
-2045 -2585 0
-2046 -2586 0
-2047 -2587 0
-2048 -2588 0
-2049 -2589 0
-2050 -2590 0
-2051 -2591 0
-2052 -2592 0
-2053 -2593 0
-2054 -2594 0
-2055 -2595 0
-2056 -2596 0
-2057 -2597 0
-2058 -2598 0
-2059 -2599 0
-2060 -2600 0
-2061 -2601 0
-2062 -2602 0
-2063 -2603 0
-2064 -2604 0
-2065 -2605 0
-2066 -2606 0
-2067 -2607 0
-2068 -2608 0
-2069 -2609 0
-2070 -2610 0
-2071 -2611 0
-2072 -2612 0
-2073 -2613 0
-2074 -2614 0
-2075 -2615 0
-2076 -2616 0
-2077 -2617 0
-2078 -2618 0
-2079 -2619 0
-2080 -2620 0
-2081 -2621 0
-2082 -2622 0
-2083 -2623 0
-2084 -2624 0
-2085 -2625 0
-2086 -2626 0
-2087 -2627 0
-2088 -2628 0
-2089 -2629 0
-2090 -2630 0
-2091 -2631 0
-2092 -2632 0
-2093 -2633 0
-2094 -2634 0
-2095 -2635 0
-2096 -2636 0
-2097 -2637 0
-2098 -2638 0
-2099 -2639 0
-2100 -2640 0
-2041 -2821 0
-2042 -2822 0
-2043 -2823 0
-2044 -2824 0
-2045 -2825 0
-2046 -2826 0
-2047 -2827 0
-2048 -2828 0
-2049 -2829 0
-2050 -2830 0
-2051 -2831 0
-2052 -2832 0
-2053 -2833 0
-2054 -2834 0
-2055 -2835 0
-2056 -2836 0
-2057 -2837 0
-2058 -2838 0
-2059 -2839 0
-2060 -2840 0
-2061 -2841 0
-2062 -2842 0
-2063 -2843 0
-2064 -2844 0
-2065 -2845 0
-2066 -2846 0
-2067 -2847 0
-2068 -2848 0
-2069 -2849 0
-2070 -2850 0
-2071 -2851 0
-2072 -2852 0
-2073 -2853 0
-2074 -2854 0
-2075 -2855 0
-2076 -2856 0
-2077 -2857 0
-2078 -2858 0
-2079 -2859 0
-2080 -2860 0
-2081 -2861 0
-2082 -2862 0
-2083 -2863 0
-2084 -2864 0
-2085 -2865 0
-2086 -2866 0
-2087 -2867 0
-2088 -2868 0
-2089 -2869 0
-2090 -2870 0
-2091 -2871 0
-2092 -2872 0
-2093 -2873 0
-2094 -2874 0
-2095 -2875 0
-2096 -2876 0
-2097 -2877 0
-2098 -2878 0
-2099 -2879 0
-2100 -2880 0
-2041 -3241 0
-2042 -3242 0
-2043 -3243 0
-2044 -3244 0
-2045 -3245 0
-2046 -3246 0
-2047 -3247 0
-2048 -3248 0
-2049 -3249 0
-2050 -3250 0
-2051 -3251 0
-2052 -3252 0
-2053 -3253 0
-2054 -3254 0
-2055 -3255 0
-2056 -3256 0
-2057 -3257 0
-2058 -3258 0
-2059 -3259 0
-2060 -3260 0
-2061 -3261 0
-2062 -3262 0
-2063 -3263 0
-2064 -3264 0
-2065 -3265 0
-2066 -3266 0
-2067 -3267 0
-2068 -3268 0
-2069 -3269 0
-2070 -3270 0
-2071 -3271 0
-2072 -3272 0
-2073 -3273 0
-2074 -3274 0
-2075 -3275 0
-2076 -3276 0
-2077 -3277 0
-2078 -3278 0
-2079 -3279 0
-2080 -3280 0
-2081 -3281 0
-2082 -3282 0
-2083 -3283 0
-2084 -3284 0
-2085 -3285 0
-2086 -3286 0
-2087 -3287 0
-2088 -3288 0
-2089 -3289 0
-2090 -3290 0
-2091 -3291 0
-2092 -3292 0
-2093 -3293 0
-2094 -3294 0
-2095 -3295 0
-2096 -3296 0
-2097 -3297 0
-2098 -3298 0
-2099 -3299 0
-2100 -3300 0
-2041 -3361 0
-2042 -3362 0
-2043 -3363 0
-2044 -3364 0
-2045 -3365 0
-2046 -3366 0
-2047 -3367 0
-2048 -3368 0
-2049 -3369 0
-2050 -3370 0
-2051 -3371 0
-2052 -3372 0
-2053 -3373 0
-2054 -3374 0
-2055 -3375 0
-2056 -3376 0
-2057 -3377 0
-2058 -3378 0
-2059 -3379 0
-2060 -3380 0
-2061 -3381 0
-2062 -3382 0
-2063 -3383 0
-2064 -3384 0
-2065 -3385 0
-2066 -3386 0
-2067 -3387 0
-2068 -3388 0
-2069 -3389 0
-2070 -3390 0
-2071 -3391 0
-2072 -3392 0
-2073 -3393 0
-2074 -3394 0
-2075 -3395 0
-2076 -3396 0
-2077 -3397 0
-2078 -3398 0
-2079 -3399 0
-2080 -3400 0
-2081 -3401 0
-2082 -3402 0
-2083 -3403 0
-2084 -3404 0
-2085 -3405 0
-2086 -3406 0
-2087 -3407 0
-2088 -3408 0
-2089 -3409 0
-2090 -3410 0
-2091 -3411 0
-2092 -3412 0
-2093 -3413 0
-2094 -3414 0
-2095 -3415 0
-2096 -3416 0
-2097 -3417 0
-2098 -3418 0
-2099 -3419 0
-2100 -3420 0
-2041 -3421 0
-2042 -3422 0
-2043 -3423 0
-2044 -3424 0
-2045 -3425 0
-2046 -3426 0
-2047 -3427 0
-2048 -3428 0
-2049 -3429 0
-2050 -3430 0
-2051 -3431 0
-2052 -3432 0
-2053 -3433 0
-2054 -3434 0
-2055 -3435 0
-2056 -3436 0
-2057 -3437 0
-2058 -3438 0
-2059 -3439 0
-2060 -3440 0
-2061 -3441 0
-2062 -3442 0
-2063 -3443 0
-2064 -3444 0
-2065 -3445 0
-2066 -3446 0
-2067 -3447 0
-2068 -3448 0
-2069 -3449 0
-2070 -3450 0
-2071 -3451 0
-2072 -3452 0
-2073 -3453 0
-2074 -3454 0
-2075 -3455 0
-2076 -3456 0
-2077 -3457 0
-2078 -3458 0
-2079 -3459 0
-2080 -3460 0
-2081 -3461 0
-2082 -3462 0
-2083 -3463 0
-2084 -3464 0
-2085 -3465 0
-2086 -3466 0
-2087 -3467 0
-2088 -3468 0
-2089 -3469 0
-2090 -3470 0
-2091 -3471 0
-2092 -3472 0
-2093 -3473 0
-2094 -3474 0
-2095 -3475 0
-2096 -3476 0
-2097 -3477 0
-2098 -3478 0
-2099 -3479 0
-2100 -3480 0
-2101 -1681 0
-2102 -1682 0
-2103 -1683 0
-2104 -1684 0
-2105 -1685 0
-2106 -1686 0
-2107 -1687 0
-2108 -1688 0
-2109 -1689 0
-2110 -1690 0
-2111 -1691 0
-2112 -1692 0
-2113 -1693 0
-2114 -1694 0
-2115 -1695 0
-2116 -1696 0
-2117 -1697 0
-2118 -1698 0
-2119 -1699 0
-2120 -1700 0
-2121 -1701 0
-2122 -1702 0
-2123 -1703 0
-2124 -1704 0
-2125 -1705 0
-2126 -1706 0
-2127 -1707 0
-2128 -1708 0
-2129 -1709 0
-2130 -1710 0
-2131 -1711 0
-2132 -1712 0
-2133 -1713 0
-2134 -1714 0
-2135 -1715 0
-2136 -1716 0
-2137 -1717 0
-2138 -1718 0
-2139 -1719 0
-2140 -1720 0
-2141 -1721 0
-2142 -1722 0
-2143 -1723 0
-2144 -1724 0
-2145 -1725 0
-2146 -1726 0
-2147 -1727 0
-2148 -1728 0
-2149 -1729 0
-2150 -1730 0
-2151 -1731 0
-2152 -1732 0
-2153 -1733 0
-2154 -1734 0
-2155 -1735 0
-2156 -1736 0
-2157 -1737 0
-2158 -1738 0
-2159 -1739 0
-2160 -1740 0
-2161 -61 0
-2162 -62 0
-2163 -63 0
-2164 -64 0
-2165 -65 0
-2166 -66 0
-2167 -67 0
-2168 -68 0
-2169 -69 0
-2170 -70 0
-2171 -71 0
-2172 -72 0
-2173 -73 0
-2174 -74 0
-2175 -75 0
-2176 -76 0
-2177 -77 0
-2178 -78 0
-2179 -79 0
-2180 -80 0
-2181 -81 0
-2182 -82 0
-2183 -83 0
-2184 -84 0
-2185 -85 0
-2186 -86 0
-2187 -87 0
-2188 -88 0
-2189 -89 0
-2190 -90 0
-2191 -91 0
-2192 -92 0
-2193 -93 0
-2194 -94 0
-2195 -95 0
-2196 -96 0
-2197 -97 0
-2198 -98 0
-2199 -99 0
-2200 -100 0
-2201 -101 0
-2202 -102 0
-2203 -103 0
-2204 -104 0
-2205 -105 0
-2206 -106 0
-2207 -107 0
-2208 -108 0
-2209 -109 0
-2210 -110 0
-2211 -111 0
-2212 -112 0
-2213 -113 0
-2214 -114 0
-2215 -115 0
-2216 -116 0
-2217 -117 0
-2218 -118 0
-2219 -119 0
-2220 -120 0
-2161 -121 0
-2162 -122 0
-2163 -123 0
-2164 -124 0
-2165 -125 0
-2166 -126 0
-2167 -127 0
-2168 -128 0
-2169 -129 0
-2170 -130 0
-2171 -131 0
-2172 -132 0
-2173 -133 0
-2174 -134 0
-2175 -135 0
-2176 -136 0
-2177 -137 0
-2178 -138 0
-2179 -139 0
-2180 -140 0
-2181 -141 0
-2182 -142 0
-2183 -143 0
-2184 -144 0
-2185 -145 0
-2186 -146 0
-2187 -147 0
-2188 -148 0
-2189 -149 0
-2190 -150 0
-2191 -151 0
-2192 -152 0
-2193 -153 0
-2194 -154 0
-2195 -155 0
-2196 -156 0
-2197 -157 0
-2198 -158 0
-2199 -159 0
-2200 -160 0
-2201 -161 0
-2202 -162 0
-2203 -163 0
-2204 -164 0
-2205 -165 0
-2206 -166 0
-2207 -167 0
-2208 -168 0
-2209 -169 0
-2210 -170 0
-2211 -171 0
-2212 -172 0
-2213 -173 0
-2214 -174 0
-2215 -175 0
-2216 -176 0
-2217 -177 0
-2218 -178 0
-2219 -179 0
-2220 -180 0
-2161 -241 0
-2162 -242 0
-2163 -243 0
-2164 -244 0
-2165 -245 0
-2166 -246 0
-2167 -247 0
-2168 -248 0
-2169 -249 0
-2170 -250 0
-2171 -251 0
-2172 -252 0
-2173 -253 0
-2174 -254 0
-2175 -255 0
-2176 -256 0
-2177 -257 0
-2178 -258 0
-2179 -259 0
-2180 -260 0
-2181 -261 0
-2182 -262 0
-2183 -263 0
-2184 -264 0
-2185 -265 0
-2186 -266 0
-2187 -267 0
-2188 -268 0
-2189 -269 0
-2190 -270 0
-2191 -271 0
-2192 -272 0
-2193 -273 0
-2194 -274 0
-2195 -275 0
-2196 -276 0
-2197 -277 0
-2198 -278 0
-2199 -279 0
-2200 -280 0
-2201 -281 0
-2202 -282 0
-2203 -283 0
-2204 -284 0
-2205 -285 0
-2206 -286 0
-2207 -287 0
-2208 -288 0
-2209 -289 0
-2210 -290 0
-2211 -291 0
-2212 -292 0
-2213 -293 0
-2214 -294 0
-2215 -295 0
-2216 -296 0
-2217 -297 0
-2218 -298 0
-2219 -299 0
-2220 -300 0
-2161 -301 0
-2162 -302 0
-2163 -303 0
-2164 -304 0
-2165 -305 0
-2166 -306 0
-2167 -307 0
-2168 -308 0
-2169 -309 0
-2170 -310 0
-2171 -311 0
-2172 -312 0
-2173 -313 0
-2174 -314 0
-2175 -315 0
-2176 -316 0
-2177 -317 0
-2178 -318 0
-2179 -319 0
-2180 -320 0
-2181 -321 0
-2182 -322 0
-2183 -323 0
-2184 -324 0
-2185 -325 0
-2186 -326 0
-2187 -327 0
-2188 -328 0
-2189 -329 0
-2190 -330 0
-2191 -331 0
-2192 -332 0
-2193 -333 0
-2194 -334 0
-2195 -335 0
-2196 -336 0
-2197 -337 0
-2198 -338 0
-2199 -339 0
-2200 -340 0
-2201 -341 0
-2202 -342 0
-2203 -343 0
-2204 -344 0
-2205 -345 0
-2206 -346 0
-2207 -347 0
-2208 -348 0
-2209 -349 0
-2210 -350 0
-2211 -351 0
-2212 -352 0
-2213 -353 0
-2214 -354 0
-2215 -355 0
-2216 -356 0
-2217 -357 0
-2218 -358 0
-2219 -359 0
-2220 -360 0
-2161 -481 0
-2162 -482 0
-2163 -483 0
-2164 -484 0
-2165 -485 0
-2166 -486 0
-2167 -487 0
-2168 -488 0
-2169 -489 0
-2170 -490 0
-2171 -491 0
-2172 -492 0
-2173 -493 0
-2174 -494 0
-2175 -495 0
-2176 -496 0
-2177 -497 0
-2178 -498 0
-2179 -499 0
-2180 -500 0
-2181 -501 0
-2182 -502 0
-2183 -503 0
-2184 -504 0
-2185 -505 0
-2186 -506 0
-2187 -507 0
-2188 -508 0
-2189 -509 0
-2190 -510 0
-2191 -511 0
-2192 -512 0
-2193 -513 0
-2194 -514 0
-2195 -515 0
-2196 -516 0
-2197 -517 0
-2198 -518 0
-2199 -519 0
-2200 -520 0
-2201 -521 0
-2202 -522 0
-2203 -523 0
-2204 -524 0
-2205 -525 0
-2206 -526 0
-2207 -527 0
-2208 -528 0
-2209 -529 0
-2210 -530 0
-2211 -531 0
-2212 -532 0
-2213 -533 0
-2214 -534 0
-2215 -535 0
-2216 -536 0
-2217 -537 0
-2218 -538 0
-2219 -539 0
-2220 -540 0
-2161 -541 0
-2162 -542 0
-2163 -543 0
-2164 -544 0
-2165 -545 0
-2166 -546 0
-2167 -547 0
-2168 -548 0
-2169 -549 0
-2170 -550 0
-2171 -551 0
-2172 -552 0
-2173 -553 0
-2174 -554 0
-2175 -555 0
-2176 -556 0
-2177 -557 0
-2178 -558 0
-2179 -559 0
-2180 -560 0
-2181 -561 0
-2182 -562 0
-2183 -563 0
-2184 -564 0
-2185 -565 0
-2186 -566 0
-2187 -567 0
-2188 -568 0
-2189 -569 0
-2190 -570 0
-2191 -571 0
-2192 -572 0
-2193 -573 0
-2194 -574 0
-2195 -575 0
-2196 -576 0
-2197 -577 0
-2198 -578 0
-2199 -579 0
-2200 -580 0
-2201 -581 0
-2202 -582 0
-2203 -583 0
-2204 -584 0
-2205 -585 0
-2206 -586 0
-2207 -587 0
-2208 -588 0
-2209 -589 0
-2210 -590 0
-2211 -591 0
-2212 -592 0
-2213 -593 0
-2214 -594 0
-2215 -595 0
-2216 -596 0
-2217 -597 0
-2218 -598 0
-2219 -599 0
-2220 -600 0
-2161 -781 0
-2162 -782 0
-2163 -783 0
-2164 -784 0
-2165 -785 0
-2166 -786 0
-2167 -787 0
-2168 -788 0
-2169 -789 0
-2170 -790 0
-2171 -791 0
-2172 -792 0
-2173 -793 0
-2174 -794 0
-2175 -795 0
-2176 -796 0
-2177 -797 0
-2178 -798 0
-2179 -799 0
-2180 -800 0
-2181 -801 0
-2182 -802 0
-2183 -803 0
-2184 -804 0
-2185 -805 0
-2186 -806 0
-2187 -807 0
-2188 -808 0
-2189 -809 0
-2190 -810 0
-2191 -811 0
-2192 -812 0
-2193 -813 0
-2194 -814 0
-2195 -815 0
-2196 -816 0
-2197 -817 0
-2198 -818 0
-2199 -819 0
-2200 -820 0
-2201 -821 0
-2202 -822 0
-2203 -823 0
-2204 -824 0
-2205 -825 0
-2206 -826 0
-2207 -827 0
-2208 -828 0
-2209 -829 0
-2210 -830 0
-2211 -831 0
-2212 -832 0
-2213 -833 0
-2214 -834 0
-2215 -835 0
-2216 -836 0
-2217 -837 0
-2218 -838 0
-2219 -839 0
-2220 -840 0
-2161 -841 0
-2162 -842 0
-2163 -843 0
-2164 -844 0
-2165 -845 0
-2166 -846 0
-2167 -847 0
-2168 -848 0
-2169 -849 0
-2170 -850 0
-2171 -851 0
-2172 -852 0
-2173 -853 0
-2174 -854 0
-2175 -855 0
-2176 -856 0
-2177 -857 0
-2178 -858 0
-2179 -859 0
-2180 -860 0
-2181 -861 0
-2182 -862 0
-2183 -863 0
-2184 -864 0
-2185 -865 0
-2186 -866 0
-2187 -867 0
-2188 -868 0
-2189 -869 0
-2190 -870 0
-2191 -871 0
-2192 -872 0
-2193 -873 0
-2194 -874 0
-2195 -875 0
-2196 -876 0
-2197 -877 0
-2198 -878 0
-2199 -879 0
-2200 -880 0
-2201 -881 0
-2202 -882 0
-2203 -883 0
-2204 -884 0
-2205 -885 0
-2206 -886 0
-2207 -887 0
-2208 -888 0
-2209 -889 0
-2210 -890 0
-2211 -891 0
-2212 -892 0
-2213 -893 0
-2214 -894 0
-2215 -895 0
-2216 -896 0
-2217 -897 0
-2218 -898 0
-2219 -899 0
-2220 -900 0
-2161 -961 0
-2162 -962 0
-2163 -963 0
-2164 -964 0
-2165 -965 0
-2166 -966 0
-2167 -967 0
-2168 -968 0
-2169 -969 0
-2170 -970 0
-2171 -971 0
-2172 -972 0
-2173 -973 0
-2174 -974 0
-2175 -975 0
-2176 -976 0
-2177 -977 0
-2178 -978 0
-2179 -979 0
-2180 -980 0
-2181 -981 0
-2182 -982 0
-2183 -983 0
-2184 -984 0
-2185 -985 0
-2186 -986 0
-2187 -987 0
-2188 -988 0
-2189 -989 0
-2190 -990 0
-2191 -991 0
-2192 -992 0
-2193 -993 0
-2194 -994 0
-2195 -995 0
-2196 -996 0
-2197 -997 0
-2198 -998 0
-2199 -999 0
-2200 -1000 0
-2201 -1001 0
-2202 -1002 0
-2203 -1003 0
-2204 -1004 0
-2205 -1005 0
-2206 -1006 0
-2207 -1007 0
-2208 -1008 0
-2209 -1009 0
-2210 -1010 0
-2211 -1011 0
-2212 -1012 0
-2213 -1013 0
-2214 -1014 0
-2215 -1015 0
-2216 -1016 0
-2217 -1017 0
-2218 -1018 0
-2219 -1019 0
-2220 -1020 0
-2161 -1141 0
-2162 -1142 0
-2163 -1143 0
-2164 -1144 0
-2165 -1145 0
-2166 -1146 0
-2167 -1147 0
-2168 -1148 0
-2169 -1149 0
-2170 -1150 0
-2171 -1151 0
-2172 -1152 0
-2173 -1153 0
-2174 -1154 0
-2175 -1155 0
-2176 -1156 0
-2177 -1157 0
-2178 -1158 0
-2179 -1159 0
-2180 -1160 0
-2181 -1161 0
-2182 -1162 0
-2183 -1163 0
-2184 -1164 0
-2185 -1165 0
-2186 -1166 0
-2187 -1167 0
-2188 -1168 0
-2189 -1169 0
-2190 -1170 0
-2191 -1171 0
-2192 -1172 0
-2193 -1173 0
-2194 -1174 0
-2195 -1175 0
-2196 -1176 0
-2197 -1177 0
-2198 -1178 0
-2199 -1179 0
-2200 -1180 0
-2201 -1181 0
-2202 -1182 0
-2203 -1183 0
-2204 -1184 0
-2205 -1185 0
-2206 -1186 0
-2207 -1187 0
-2208 -1188 0
-2209 -1189 0
-2210 -1190 0
-2211 -1191 0
-2212 -1192 0
-2213 -1193 0
-2214 -1194 0
-2215 -1195 0
-2216 -1196 0
-2217 -1197 0
-2218 -1198 0
-2219 -1199 0
-2220 -1200 0
-2161 -1261 0
-2162 -1262 0
-2163 -1263 0
-2164 -1264 0
-2165 -1265 0
-2166 -1266 0
-2167 -1267 0
-2168 -1268 0
-2169 -1269 0
-2170 -1270 0
-2171 -1271 0
-2172 -1272 0
-2173 -1273 0
-2174 -1274 0
-2175 -1275 0
-2176 -1276 0
-2177 -1277 0
-2178 -1278 0
-2179 -1279 0
-2180 -1280 0
-2181 -1281 0
-2182 -1282 0
-2183 -1283 0
-2184 -1284 0
-2185 -1285 0
-2186 -1286 0
-2187 -1287 0
-2188 -1288 0
-2189 -1289 0
-2190 -1290 0
-2191 -1291 0
-2192 -1292 0
-2193 -1293 0
-2194 -1294 0
-2195 -1295 0
-2196 -1296 0
-2197 -1297 0
-2198 -1298 0
-2199 -1299 0
-2200 -1300 0
-2201 -1301 0
-2202 -1302 0
-2203 -1303 0
-2204 -1304 0
-2205 -1305 0
-2206 -1306 0
-2207 -1307 0
-2208 -1308 0
-2209 -1309 0
-2210 -1310 0
-2211 -1311 0
-2212 -1312 0
-2213 -1313 0
-2214 -1314 0
-2215 -1315 0
-2216 -1316 0
-2217 -1317 0
-2218 -1318 0
-2219 -1319 0
-2220 -1320 0
-2161 -1621 0
-2162 -1622 0
-2163 -1623 0
-2164 -1624 0
-2165 -1625 0
-2166 -1626 0
-2167 -1627 0
-2168 -1628 0
-2169 -1629 0
-2170 -1630 0
-2171 -1631 0
-2172 -1632 0
-2173 -1633 0
-2174 -1634 0
-2175 -1635 0
-2176 -1636 0
-2177 -1637 0
-2178 -1638 0
-2179 -1639 0
-2180 -1640 0
-2181 -1641 0
-2182 -1642 0
-2183 -1643 0
-2184 -1644 0
-2185 -1645 0
-2186 -1646 0
-2187 -1647 0
-2188 -1648 0
-2189 -1649 0
-2190 -1650 0
-2191 -1651 0
-2192 -1652 0
-2193 -1653 0
-2194 -1654 0
-2195 -1655 0
-2196 -1656 0
-2197 -1657 0
-2198 -1658 0
-2199 -1659 0
-2200 -1660 0
-2201 -1661 0
-2202 -1662 0
-2203 -1663 0
-2204 -1664 0
-2205 -1665 0
-2206 -1666 0
-2207 -1667 0
-2208 -1668 0
-2209 -1669 0
-2210 -1670 0
-2211 -1671 0
-2212 -1672 0
-2213 -1673 0
-2214 -1674 0
-2215 -1675 0
-2216 -1676 0
-2217 -1677 0
-2218 -1678 0
-2219 -1679 0
-2220 -1680 0
-2161 -1681 0
-2162 -1682 0
-2163 -1683 0
-2164 -1684 0
-2165 -1685 0
-2166 -1686 0
-2167 -1687 0
-2168 -1688 0
-2169 -1689 0
-2170 -1690 0
-2171 -1691 0
-2172 -1692 0
-2173 -1693 0
-2174 -1694 0
-2175 -1695 0
-2176 -1696 0
-2177 -1697 0
-2178 -1698 0
-2179 -1699 0
-2180 -1700 0
-2181 -1701 0
-2182 -1702 0
-2183 -1703 0
-2184 -1704 0
-2185 -1705 0
-2186 -1706 0
-2187 -1707 0
-2188 -1708 0
-2189 -1709 0
-2190 -1710 0
-2191 -1711 0
-2192 -1712 0
-2193 -1713 0
-2194 -1714 0
-2195 -1715 0
-2196 -1716 0
-2197 -1717 0
-2198 -1718 0
-2199 -1719 0
-2200 -1720 0
-2201 -1721 0
-2202 -1722 0
-2203 -1723 0
-2204 -1724 0
-2205 -1725 0
-2206 -1726 0
-2207 -1727 0
-2208 -1728 0
-2209 -1729 0
-2210 -1730 0
-2211 -1731 0
-2212 -1732 0
-2213 -1733 0
-2214 -1734 0
-2215 -1735 0
-2216 -1736 0
-2217 -1737 0
-2218 -1738 0
-2219 -1739 0
-2220 -1740 0
-2161 -1741 0
-2162 -1742 0
-2163 -1743 0
-2164 -1744 0
-2165 -1745 0
-2166 -1746 0
-2167 -1747 0
-2168 -1748 0
-2169 -1749 0
-2170 -1750 0
-2171 -1751 0
-2172 -1752 0
-2173 -1753 0
-2174 -1754 0
-2175 -1755 0
-2176 -1756 0
-2177 -1757 0
-2178 -1758 0
-2179 -1759 0
-2180 -1760 0
-2181 -1761 0
-2182 -1762 0
-2183 -1763 0
-2184 -1764 0
-2185 -1765 0
-2186 -1766 0
-2187 -1767 0
-2188 -1768 0
-2189 -1769 0
-2190 -1770 0
-2191 -1771 0
-2192 -1772 0
-2193 -1773 0
-2194 -1774 0
-2195 -1775 0
-2196 -1776 0
-2197 -1777 0
-2198 -1778 0
-2199 -1779 0
-2200 -1780 0
-2201 -1781 0
-2202 -1782 0
-2203 -1783 0
-2204 -1784 0
-2205 -1785 0
-2206 -1786 0
-2207 -1787 0
-2208 -1788 0
-2209 -1789 0
-2210 -1790 0
-2211 -1791 0
-2212 -1792 0
-2213 -1793 0
-2214 -1794 0
-2215 -1795 0
-2216 -1796 0
-2217 -1797 0
-2218 -1798 0
-2219 -1799 0
-2220 -1800 0
-2161 -1801 0
-2162 -1802 0
-2163 -1803 0
-2164 -1804 0
-2165 -1805 0
-2166 -1806 0
-2167 -1807 0
-2168 -1808 0
-2169 -1809 0
-2170 -1810 0
-2171 -1811 0
-2172 -1812 0
-2173 -1813 0
-2174 -1814 0
-2175 -1815 0
-2176 -1816 0
-2177 -1817 0
-2178 -1818 0
-2179 -1819 0
-2180 -1820 0
-2181 -1821 0
-2182 -1822 0
-2183 -1823 0
-2184 -1824 0
-2185 -1825 0
-2186 -1826 0
-2187 -1827 0
-2188 -1828 0
-2189 -1829 0
-2190 -1830 0
-2191 -1831 0
-2192 -1832 0
-2193 -1833 0
-2194 -1834 0
-2195 -1835 0
-2196 -1836 0
-2197 -1837 0
-2198 -1838 0
-2199 -1839 0
-2200 -1840 0
-2201 -1841 0
-2202 -1842 0
-2203 -1843 0
-2204 -1844 0
-2205 -1845 0
-2206 -1846 0
-2207 -1847 0
-2208 -1848 0
-2209 -1849 0
-2210 -1850 0
-2211 -1851 0
-2212 -1852 0
-2213 -1853 0
-2214 -1854 0
-2215 -1855 0
-2216 -1856 0
-2217 -1857 0
-2218 -1858 0
-2219 -1859 0
-2220 -1860 0
-2161 -2041 0
-2162 -2042 0
-2163 -2043 0
-2164 -2044 0
-2165 -2045 0
-2166 -2046 0
-2167 -2047 0
-2168 -2048 0
-2169 -2049 0
-2170 -2050 0
-2171 -2051 0
-2172 -2052 0
-2173 -2053 0
-2174 -2054 0
-2175 -2055 0
-2176 -2056 0
-2177 -2057 0
-2178 -2058 0
-2179 -2059 0
-2180 -2060 0
-2181 -2061 0
-2182 -2062 0
-2183 -2063 0
-2184 -2064 0
-2185 -2065 0
-2186 -2066 0
-2187 -2067 0
-2188 -2068 0
-2189 -2069 0
-2190 -2070 0
-2191 -2071 0
-2192 -2072 0
-2193 -2073 0
-2194 -2074 0
-2195 -2075 0
-2196 -2076 0
-2197 -2077 0
-2198 -2078 0
-2199 -2079 0
-2200 -2080 0
-2201 -2081 0
-2202 -2082 0
-2203 -2083 0
-2204 -2084 0
-2205 -2085 0
-2206 -2086 0
-2207 -2087 0
-2208 -2088 0
-2209 -2089 0
-2210 -2090 0
-2211 -2091 0
-2212 -2092 0
-2213 -2093 0
-2214 -2094 0
-2215 -2095 0
-2216 -2096 0
-2217 -2097 0
-2218 -2098 0
-2219 -2099 0
-2220 -2100 0
-2161 -2281 0
-2162 -2282 0
-2163 -2283 0
-2164 -2284 0
-2165 -2285 0
-2166 -2286 0
-2167 -2287 0
-2168 -2288 0
-2169 -2289 0
-2170 -2290 0
-2171 -2291 0
-2172 -2292 0
-2173 -2293 0
-2174 -2294 0
-2175 -2295 0
-2176 -2296 0
-2177 -2297 0
-2178 -2298 0
-2179 -2299 0
-2180 -2300 0
-2181 -2301 0
-2182 -2302 0
-2183 -2303 0
-2184 -2304 0
-2185 -2305 0
-2186 -2306 0
-2187 -2307 0
-2188 -2308 0
-2189 -2309 0
-2190 -2310 0
-2191 -2311 0
-2192 -2312 0
-2193 -2313 0
-2194 -2314 0
-2195 -2315 0
-2196 -2316 0
-2197 -2317 0
-2198 -2318 0
-2199 -2319 0
-2200 -2320 0
-2201 -2321 0
-2202 -2322 0
-2203 -2323 0
-2204 -2324 0
-2205 -2325 0
-2206 -2326 0
-2207 -2327 0
-2208 -2328 0
-2209 -2329 0
-2210 -2330 0
-2211 -2331 0
-2212 -2332 0
-2213 -2333 0
-2214 -2334 0
-2215 -2335 0
-2216 -2336 0
-2217 -2337 0
-2218 -2338 0
-2219 -2339 0
-2220 -2340 0
-2161 -2521 0
-2162 -2522 0
-2163 -2523 0
-2164 -2524 0
-2165 -2525 0
-2166 -2526 0
-2167 -2527 0
-2168 -2528 0
-2169 -2529 0
-2170 -2530 0
-2171 -2531 0
-2172 -2532 0
-2173 -2533 0
-2174 -2534 0
-2175 -2535 0
-2176 -2536 0
-2177 -2537 0
-2178 -2538 0
-2179 -2539 0
-2180 -2540 0
-2181 -2541 0
-2182 -2542 0
-2183 -2543 0
-2184 -2544 0
-2185 -2545 0
-2186 -2546 0
-2187 -2547 0
-2188 -2548 0
-2189 -2549 0
-2190 -2550 0
-2191 -2551 0
-2192 -2552 0
-2193 -2553 0
-2194 -2554 0
-2195 -2555 0
-2196 -2556 0
-2197 -2557 0
-2198 -2558 0
-2199 -2559 0
-2200 -2560 0
-2201 -2561 0
-2202 -2562 0
-2203 -2563 0
-2204 -2564 0
-2205 -2565 0
-2206 -2566 0
-2207 -2567 0
-2208 -2568 0
-2209 -2569 0
-2210 -2570 0
-2211 -2571 0
-2212 -2572 0
-2213 -2573 0
-2214 -2574 0
-2215 -2575 0
-2216 -2576 0
-2217 -2577 0
-2218 -2578 0
-2219 -2579 0
-2220 -2580 0
-2161 -2581 0
-2162 -2582 0
-2163 -2583 0
-2164 -2584 0
-2165 -2585 0
-2166 -2586 0
-2167 -2587 0
-2168 -2588 0
-2169 -2589 0
-2170 -2590 0
-2171 -2591 0
-2172 -2592 0
-2173 -2593 0
-2174 -2594 0
-2175 -2595 0
-2176 -2596 0
-2177 -2597 0
-2178 -2598 0
-2179 -2599 0
-2180 -2600 0
-2181 -2601 0
-2182 -2602 0
-2183 -2603 0
-2184 -2604 0
-2185 -2605 0
-2186 -2606 0
-2187 -2607 0
-2188 -2608 0
-2189 -2609 0
-2190 -2610 0
-2191 -2611 0
-2192 -2612 0
-2193 -2613 0
-2194 -2614 0
-2195 -2615 0
-2196 -2616 0
-2197 -2617 0
-2198 -2618 0
-2199 -2619 0
-2200 -2620 0
-2201 -2621 0
-2202 -2622 0
-2203 -2623 0
-2204 -2624 0
-2205 -2625 0
-2206 -2626 0
-2207 -2627 0
-2208 -2628 0
-2209 -2629 0
-2210 -2630 0
-2211 -2631 0
-2212 -2632 0
-2213 -2633 0
-2214 -2634 0
-2215 -2635 0
-2216 -2636 0
-2217 -2637 0
-2218 -2638 0
-2219 -2639 0
-2220 -2640 0
-2161 -2701 0
-2162 -2702 0
-2163 -2703 0
-2164 -2704 0
-2165 -2705 0
-2166 -2706 0
-2167 -2707 0
-2168 -2708 0
-2169 -2709 0
-2170 -2710 0
-2171 -2711 0
-2172 -2712 0
-2173 -2713 0
-2174 -2714 0
-2175 -2715 0
-2176 -2716 0
-2177 -2717 0
-2178 -2718 0
-2179 -2719 0
-2180 -2720 0
-2181 -2721 0
-2182 -2722 0
-2183 -2723 0
-2184 -2724 0
-2185 -2725 0
-2186 -2726 0
-2187 -2727 0
-2188 -2728 0
-2189 -2729 0
-2190 -2730 0
-2191 -2731 0
-2192 -2732 0
-2193 -2733 0
-2194 -2734 0
-2195 -2735 0
-2196 -2736 0
-2197 -2737 0
-2198 -2738 0
-2199 -2739 0
-2200 -2740 0
-2201 -2741 0
-2202 -2742 0
-2203 -2743 0
-2204 -2744 0
-2205 -2745 0
-2206 -2746 0
-2207 -2747 0
-2208 -2748 0
-2209 -2749 0
-2210 -2750 0
-2211 -2751 0
-2212 -2752 0
-2213 -2753 0
-2214 -2754 0
-2215 -2755 0
-2216 -2756 0
-2217 -2757 0
-2218 -2758 0
-2219 -2759 0
-2220 -2760 0
-2161 -3121 0
-2162 -3122 0
-2163 -3123 0
-2164 -3124 0
-2165 -3125 0
-2166 -3126 0
-2167 -3127 0
-2168 -3128 0
-2169 -3129 0
-2170 -3130 0
-2171 -3131 0
-2172 -3132 0
-2173 -3133 0
-2174 -3134 0
-2175 -3135 0
-2176 -3136 0
-2177 -3137 0
-2178 -3138 0
-2179 -3139 0
-2180 -3140 0
-2181 -3141 0
-2182 -3142 0
-2183 -3143 0
-2184 -3144 0
-2185 -3145 0
-2186 -3146 0
-2187 -3147 0
-2188 -3148 0
-2189 -3149 0
-2190 -3150 0
-2191 -3151 0
-2192 -3152 0
-2193 -3153 0
-2194 -3154 0
-2195 -3155 0
-2196 -3156 0
-2197 -3157 0
-2198 -3158 0
-2199 -3159 0
-2200 -3160 0
-2201 -3161 0
-2202 -3162 0
-2203 -3163 0
-2204 -3164 0
-2205 -3165 0
-2206 -3166 0
-2207 -3167 0
-2208 -3168 0
-2209 -3169 0
-2210 -3170 0
-2211 -3171 0
-2212 -3172 0
-2213 -3173 0
-2214 -3174 0
-2215 -3175 0
-2216 -3176 0
-2217 -3177 0
-2218 -3178 0
-2219 -3179 0
-2220 -3180 0
-2161 -3241 0
-2162 -3242 0
-2163 -3243 0
-2164 -3244 0
-2165 -3245 0
-2166 -3246 0
-2167 -3247 0
-2168 -3248 0
-2169 -3249 0
-2170 -3250 0
-2171 -3251 0
-2172 -3252 0
-2173 -3253 0
-2174 -3254 0
-2175 -3255 0
-2176 -3256 0
-2177 -3257 0
-2178 -3258 0
-2179 -3259 0
-2180 -3260 0
-2181 -3261 0
-2182 -3262 0
-2183 -3263 0
-2184 -3264 0
-2185 -3265 0
-2186 -3266 0
-2187 -3267 0
-2188 -3268 0
-2189 -3269 0
-2190 -3270 0
-2191 -3271 0
-2192 -3272 0
-2193 -3273 0
-2194 -3274 0
-2195 -3275 0
-2196 -3276 0
-2197 -3277 0
-2198 -3278 0
-2199 -3279 0
-2200 -3280 0
-2201 -3281 0
-2202 -3282 0
-2203 -3283 0
-2204 -3284 0
-2205 -3285 0
-2206 -3286 0
-2207 -3287 0
-2208 -3288 0
-2209 -3289 0
-2210 -3290 0
-2211 -3291 0
-2212 -3292 0
-2213 -3293 0
-2214 -3294 0
-2215 -3295 0
-2216 -3296 0
-2217 -3297 0
-2218 -3298 0
-2219 -3299 0
-2220 -3300 0
-2161 -3361 0
-2162 -3362 0
-2163 -3363 0
-2164 -3364 0
-2165 -3365 0
-2166 -3366 0
-2167 -3367 0
-2168 -3368 0
-2169 -3369 0
-2170 -3370 0
-2171 -3371 0
-2172 -3372 0
-2173 -3373 0
-2174 -3374 0
-2175 -3375 0
-2176 -3376 0
-2177 -3377 0
-2178 -3378 0
-2179 -3379 0
-2180 -3380 0
-2181 -3381 0
-2182 -3382 0
-2183 -3383 0
-2184 -3384 0
-2185 -3385 0
-2186 -3386 0
-2187 -3387 0
-2188 -3388 0
-2189 -3389 0
-2190 -3390 0
-2191 -3391 0
-2192 -3392 0
-2193 -3393 0
-2194 -3394 0
-2195 -3395 0
-2196 -3396 0
-2197 -3397 0
-2198 -3398 0
-2199 -3399 0
-2200 -3400 0
-2201 -3401 0
-2202 -3402 0
-2203 -3403 0
-2204 -3404 0
-2205 -3405 0
-2206 -3406 0
-2207 -3407 0
-2208 -3408 0
-2209 -3409 0
-2210 -3410 0
-2211 -3411 0
-2212 -3412 0
-2213 -3413 0
-2214 -3414 0
-2215 -3415 0
-2216 -3416 0
-2217 -3417 0
-2218 -3418 0
-2219 -3419 0
-2220 -3420 0
-2161 -3421 0
-2162 -3422 0
-2163 -3423 0
-2164 -3424 0
-2165 -3425 0
-2166 -3426 0
-2167 -3427 0
-2168 -3428 0
-2169 -3429 0
-2170 -3430 0
-2171 -3431 0
-2172 -3432 0
-2173 -3433 0
-2174 -3434 0
-2175 -3435 0
-2176 -3436 0
-2177 -3437 0
-2178 -3438 0
-2179 -3439 0
-2180 -3440 0
-2181 -3441 0
-2182 -3442 0
-2183 -3443 0
-2184 -3444 0
-2185 -3445 0
-2186 -3446 0
-2187 -3447 0
-2188 -3448 0
-2189 -3449 0
-2190 -3450 0
-2191 -3451 0
-2192 -3452 0
-2193 -3453 0
-2194 -3454 0
-2195 -3455 0
-2196 -3456 0
-2197 -3457 0
-2198 -3458 0
-2199 -3459 0
-2200 -3460 0
-2201 -3461 0
-2202 -3462 0
-2203 -3463 0
-2204 -3464 0
-2205 -3465 0
-2206 -3466 0
-2207 -3467 0
-2208 -3468 0
-2209 -3469 0
-2210 -3470 0
-2211 -3471 0
-2212 -3472 0
-2213 -3473 0
-2214 -3474 0
-2215 -3475 0
-2216 -3476 0
-2217 -3477 0
-2218 -3478 0
-2219 -3479 0
-2220 -3480 0
-2161 -3481 0
-2162 -3482 0
-2163 -3483 0
-2164 -3484 0
-2165 -3485 0
-2166 -3486 0
-2167 -3487 0
-2168 -3488 0
-2169 -3489 0
-2170 -3490 0
-2171 -3491 0
-2172 -3492 0
-2173 -3493 0
-2174 -3494 0
-2175 -3495 0
-2176 -3496 0
-2177 -3497 0
-2178 -3498 0
-2179 -3499 0
-2180 -3500 0
-2181 -3501 0
-2182 -3502 0
-2183 -3503 0
-2184 -3504 0
-2185 -3505 0
-2186 -3506 0
-2187 -3507 0
-2188 -3508 0
-2189 -3509 0
-2190 -3510 0
-2191 -3511 0
-2192 -3512 0
-2193 -3513 0
-2194 -3514 0
-2195 -3515 0
-2196 -3516 0
-2197 -3517 0
-2198 -3518 0
-2199 -3519 0
-2200 -3520 0
-2201 -3521 0
-2202 -3522 0
-2203 -3523 0
-2204 -3524 0
-2205 -3525 0
-2206 -3526 0
-2207 -3527 0
-2208 -3528 0
-2209 -3529 0
-2210 -3530 0
-2211 -3531 0
-2212 -3532 0
-2213 -3533 0
-2214 -3534 0
-2215 -3535 0
-2216 -3536 0
-2217 -3537 0
-2218 -3538 0
-2219 -3539 0
-2220 -3540 0
-2161 -3541 0
-2162 -3542 0
-2163 -3543 0
-2164 -3544 0
-2165 -3545 0
-2166 -3546 0
-2167 -3547 0
-2168 -3548 0
-2169 -3549 0
-2170 -3550 0
-2171 -3551 0
-2172 -3552 0
-2173 -3553 0
-2174 -3554 0
-2175 -3555 0
-2176 -3556 0
-2177 -3557 0
-2178 -3558 0
-2179 -3559 0
-2180 -3560 0
-2181 -3561 0
-2182 -3562 0
-2183 -3563 0
-2184 -3564 0
-2185 -3565 0
-2186 -3566 0
-2187 -3567 0
-2188 -3568 0
-2189 -3569 0
-2190 -3570 0
-2191 -3571 0
-2192 -3572 0
-2193 -3573 0
-2194 -3574 0
-2195 -3575 0
-2196 -3576 0
-2197 -3577 0
-2198 -3578 0
-2199 -3579 0
-2200 -3580 0
-2201 -3581 0
-2202 -3582 0
-2203 -3583 0
-2204 -3584 0
-2205 -3585 0
-2206 -3586 0
-2207 -3587 0
-2208 -3588 0
-2209 -3589 0
-2210 -3590 0
-2211 -3591 0
-2212 -3592 0
-2213 -3593 0
-2214 -3594 0
-2215 -3595 0
-2216 -3596 0
-2217 -3597 0
-2218 -3598 0
-2219 -3599 0
-2220 -3600 0
-2161 -3601 0
-2162 -3602 0
-2163 -3603 0
-2164 -3604 0
-2165 -3605 0
-2166 -3606 0
-2167 -3607 0
-2168 -3608 0
-2169 -3609 0
-2170 -3610 0
-2171 -3611 0
-2172 -3612 0
-2173 -3613 0
-2174 -3614 0
-2175 -3615 0
-2176 -3616 0
-2177 -3617 0
-2178 -3618 0
-2179 -3619 0
-2180 -3620 0
-2181 -3621 0
-2182 -3622 0
-2183 -3623 0
-2184 -3624 0
-2185 -3625 0
-2186 -3626 0
-2187 -3627 0
-2188 -3628 0
-2189 -3629 0
-2190 -3630 0
-2191 -3631 0
-2192 -3632 0
-2193 -3633 0
-2194 -3634 0
-2195 -3635 0
-2196 -3636 0
-2197 -3637 0
-2198 -3638 0
-2199 -3639 0
-2200 -3640 0
-2201 -3641 0
-2202 -3642 0
-2203 -3643 0
-2204 -3644 0
-2205 -3645 0
-2206 -3646 0
-2207 -3647 0
-2208 -3648 0
-2209 -3649 0
-2210 -3650 0
-2211 -3651 0
-2212 -3652 0
-2213 -3653 0
-2214 -3654 0
-2215 -3655 0
-2216 -3656 0
-2217 -3657 0
-2218 -3658 0
-2219 -3659 0
-2220 -3660 0
-2161 -3661 0
-2162 -3662 0
-2163 -3663 0
-2164 -3664 0
-2165 -3665 0
-2166 -3666 0
-2167 -3667 0
-2168 -3668 0
-2169 -3669 0
-2170 -3670 0
-2171 -3671 0
-2172 -3672 0
-2173 -3673 0
-2174 -3674 0
-2175 -3675 0
-2176 -3676 0
-2177 -3677 0
-2178 -3678 0
-2179 -3679 0
-2180 -3680 0
-2181 -3681 0
-2182 -3682 0
-2183 -3683 0
-2184 -3684 0
-2185 -3685 0
-2186 -3686 0
-2187 -3687 0
-2188 -3688 0
-2189 -3689 0
-2190 -3690 0
-2191 -3691 0
-2192 -3692 0
-2193 -3693 0
-2194 -3694 0
-2195 -3695 0
-2196 -3696 0
-2197 -3697 0
-2198 -3698 0
-2199 -3699 0
-2200 -3700 0
-2201 -3701 0
-2202 -3702 0
-2203 -3703 0
-2204 -3704 0
-2205 -3705 0
-2206 -3706 0
-2207 -3707 0
-2208 -3708 0
-2209 -3709 0
-2210 -3710 0
-2211 -3711 0
-2212 -3712 0
-2213 -3713 0
-2214 -3714 0
-2215 -3715 0
-2216 -3716 0
-2217 -3717 0
-2218 -3718 0
-2219 -3719 0
-2220 -3720 0
-2161 -3781 0
-2162 -3782 0
-2163 -3783 0
-2164 -3784 0
-2165 -3785 0
-2166 -3786 0
-2167 -3787 0
-2168 -3788 0
-2169 -3789 0
-2170 -3790 0
-2171 -3791 0
-2172 -3792 0
-2173 -3793 0
-2174 -3794 0
-2175 -3795 0
-2176 -3796 0
-2177 -3797 0
-2178 -3798 0
-2179 -3799 0
-2180 -3800 0
-2181 -3801 0
-2182 -3802 0
-2183 -3803 0
-2184 -3804 0
-2185 -3805 0
-2186 -3806 0
-2187 -3807 0
-2188 -3808 0
-2189 -3809 0
-2190 -3810 0
-2191 -3811 0
-2192 -3812 0
-2193 -3813 0
-2194 -3814 0
-2195 -3815 0
-2196 -3816 0
-2197 -3817 0
-2198 -3818 0
-2199 -3819 0
-2200 -3820 0
-2201 -3821 0
-2202 -3822 0
-2203 -3823 0
-2204 -3824 0
-2205 -3825 0
-2206 -3826 0
-2207 -3827 0
-2208 -3828 0
-2209 -3829 0
-2210 -3830 0
-2211 -3831 0
-2212 -3832 0
-2213 -3833 0
-2214 -3834 0
-2215 -3835 0
-2216 -3836 0
-2217 -3837 0
-2218 -3838 0
-2219 -3839 0
-2220 -3840 0
-2161 -3901 0
-2162 -3902 0
-2163 -3903 0
-2164 -3904 0
-2165 -3905 0
-2166 -3906 0
-2167 -3907 0
-2168 -3908 0
-2169 -3909 0
-2170 -3910 0
-2171 -3911 0
-2172 -3912 0
-2173 -3913 0
-2174 -3914 0
-2175 -3915 0
-2176 -3916 0
-2177 -3917 0
-2178 -3918 0
-2179 -3919 0
-2180 -3920 0
-2181 -3921 0
-2182 -3922 0
-2183 -3923 0
-2184 -3924 0
-2185 -3925 0
-2186 -3926 0
-2187 -3927 0
-2188 -3928 0
-2189 -3929 0
-2190 -3930 0
-2191 -3931 0
-2192 -3932 0
-2193 -3933 0
-2194 -3934 0
-2195 -3935 0
-2196 -3936 0
-2197 -3937 0
-2198 -3938 0
-2199 -3939 0
-2200 -3940 0
-2201 -3941 0
-2202 -3942 0
-2203 -3943 0
-2204 -3944 0
-2205 -3945 0
-2206 -3946 0
-2207 -3947 0
-2208 -3948 0
-2209 -3949 0
-2210 -3950 0
-2211 -3951 0
-2212 -3952 0
-2213 -3953 0
-2214 -3954 0
-2215 -3955 0
-2216 -3956 0
-2217 -3957 0
-2218 -3958 0
-2219 -3959 0
-2220 -3960 0
-2161 -3961 0
-2162 -3962 0
-2163 -3963 0
-2164 -3964 0
-2165 -3965 0
-2166 -3966 0
-2167 -3967 0
-2168 -3968 0
-2169 -3969 0
-2170 -3970 0
-2171 -3971 0
-2172 -3972 0
-2173 -3973 0
-2174 -3974 0
-2175 -3975 0
-2176 -3976 0
-2177 -3977 0
-2178 -3978 0
-2179 -3979 0
-2180 -3980 0
-2181 -3981 0
-2182 -3982 0
-2183 -3983 0
-2184 -3984 0
-2185 -3985 0
-2186 -3986 0
-2187 -3987 0
-2188 -3988 0
-2189 -3989 0
-2190 -3990 0
-2191 -3991 0
-2192 -3992 0
-2193 -3993 0
-2194 -3994 0
-2195 -3995 0
-2196 -3996 0
-2197 -3997 0
-2198 -3998 0
-2199 -3999 0
-2200 -4000 0
-2201 -4001 0
-2202 -4002 0
-2203 -4003 0
-2204 -4004 0
-2205 -4005 0
-2206 -4006 0
-2207 -4007 0
-2208 -4008 0
-2209 -4009 0
-2210 -4010 0
-2211 -4011 0
-2212 -4012 0
-2213 -4013 0
-2214 -4014 0
-2215 -4015 0
-2216 -4016 0
-2217 -4017 0
-2218 -4018 0
-2219 -4019 0
-2220 -4020 0
-2161 -4141 0
-2162 -4142 0
-2163 -4143 0
-2164 -4144 0
-2165 -4145 0
-2166 -4146 0
-2167 -4147 0
-2168 -4148 0
-2169 -4149 0
-2170 -4150 0
-2171 -4151 0
-2172 -4152 0
-2173 -4153 0
-2174 -4154 0
-2175 -4155 0
-2176 -4156 0
-2177 -4157 0
-2178 -4158 0
-2179 -4159 0
-2180 -4160 0
-2181 -4161 0
-2182 -4162 0
-2183 -4163 0
-2184 -4164 0
-2185 -4165 0
-2186 -4166 0
-2187 -4167 0
-2188 -4168 0
-2189 -4169 0
-2190 -4170 0
-2191 -4171 0
-2192 -4172 0
-2193 -4173 0
-2194 -4174 0
-2195 -4175 0
-2196 -4176 0
-2197 -4177 0
-2198 -4178 0
-2199 -4179 0
-2200 -4180 0
-2201 -4181 0
-2202 -4182 0
-2203 -4183 0
-2204 -4184 0
-2205 -4185 0
-2206 -4186 0
-2207 -4187 0
-2208 -4188 0
-2209 -4189 0
-2210 -4190 0
-2211 -4191 0
-2212 -4192 0
-2213 -4193 0
-2214 -4194 0
-2215 -4195 0
-2216 -4196 0
-2217 -4197 0
-2218 -4198 0
-2219 -4199 0
-2220 -4200 0
-2161 -4261 0
-2162 -4262 0
-2163 -4263 0
-2164 -4264 0
-2165 -4265 0
-2166 -4266 0
-2167 -4267 0
-2168 -4268 0
-2169 -4269 0
-2170 -4270 0
-2171 -4271 0
-2172 -4272 0
-2173 -4273 0
-2174 -4274 0
-2175 -4275 0
-2176 -4276 0
-2177 -4277 0
-2178 -4278 0
-2179 -4279 0
-2180 -4280 0
-2181 -4281 0
-2182 -4282 0
-2183 -4283 0
-2184 -4284 0
-2185 -4285 0
-2186 -4286 0
-2187 -4287 0
-2188 -4288 0
-2189 -4289 0
-2190 -4290 0
-2191 -4291 0
-2192 -4292 0
-2193 -4293 0
-2194 -4294 0
-2195 -4295 0
-2196 -4296 0
-2197 -4297 0
-2198 -4298 0
-2199 -4299 0
-2200 -4300 0
-2201 -4301 0
-2202 -4302 0
-2203 -4303 0
-2204 -4304 0
-2205 -4305 0
-2206 -4306 0
-2207 -4307 0
-2208 -4308 0
-2209 -4309 0
-2210 -4310 0
-2211 -4311 0
-2212 -4312 0
-2213 -4313 0
-2214 -4314 0
-2215 -4315 0
-2216 -4316 0
-2217 -4317 0
-2218 -4318 0
-2219 -4319 0
-2220 -4320 0
-2161 -4441 0
-2162 -4442 0
-2163 -4443 0
-2164 -4444 0
-2165 -4445 0
-2166 -4446 0
-2167 -4447 0
-2168 -4448 0
-2169 -4449 0
-2170 -4450 0
-2171 -4451 0
-2172 -4452 0
-2173 -4453 0
-2174 -4454 0
-2175 -4455 0
-2176 -4456 0
-2177 -4457 0
-2178 -4458 0
-2179 -4459 0
-2180 -4460 0
-2181 -4461 0
-2182 -4462 0
-2183 -4463 0
-2184 -4464 0
-2185 -4465 0
-2186 -4466 0
-2187 -4467 0
-2188 -4468 0
-2189 -4469 0
-2190 -4470 0
-2191 -4471 0
-2192 -4472 0
-2193 -4473 0
-2194 -4474 0
-2195 -4475 0
-2196 -4476 0
-2197 -4477 0
-2198 -4478 0
-2199 -4479 0
-2200 -4480 0
-2201 -4481 0
-2202 -4482 0
-2203 -4483 0
-2204 -4484 0
-2205 -4485 0
-2206 -4486 0
-2207 -4487 0
-2208 -4488 0
-2209 -4489 0
-2210 -4490 0
-2211 -4491 0
-2212 -4492 0
-2213 -4493 0
-2214 -4494 0
-2215 -4495 0
-2216 -4496 0
-2217 -4497 0
-2218 -4498 0
-2219 -4499 0
-2220 -4500 0
-2161 -4561 0
-2162 -4562 0
-2163 -4563 0
-2164 -4564 0
-2165 -4565 0
-2166 -4566 0
-2167 -4567 0
-2168 -4568 0
-2169 -4569 0
-2170 -4570 0
-2171 -4571 0
-2172 -4572 0
-2173 -4573 0
-2174 -4574 0
-2175 -4575 0
-2176 -4576 0
-2177 -4577 0
-2178 -4578 0
-2179 -4579 0
-2180 -4580 0
-2181 -4581 0
-2182 -4582 0
-2183 -4583 0
-2184 -4584 0
-2185 -4585 0
-2186 -4586 0
-2187 -4587 0
-2188 -4588 0
-2189 -4589 0
-2190 -4590 0
-2191 -4591 0
-2192 -4592 0
-2193 -4593 0
-2194 -4594 0
-2195 -4595 0
-2196 -4596 0
-2197 -4597 0
-2198 -4598 0
-2199 -4599 0
-2200 -4600 0
-2201 -4601 0
-2202 -4602 0
-2203 -4603 0
-2204 -4604 0
-2205 -4605 0
-2206 -4606 0
-2207 -4607 0
-2208 -4608 0
-2209 -4609 0
-2210 -4610 0
-2211 -4611 0
-2212 -4612 0
-2213 -4613 0
-2214 -4614 0
-2215 -4615 0
-2216 -4616 0
-2217 -4617 0
-2218 -4618 0
-2219 -4619 0
-2220 -4620 0
-2161 -4621 0
-2162 -4622 0
-2163 -4623 0
-2164 -4624 0
-2165 -4625 0
-2166 -4626 0
-2167 -4627 0
-2168 -4628 0
-2169 -4629 0
-2170 -4630 0
-2171 -4631 0
-2172 -4632 0
-2173 -4633 0
-2174 -4634 0
-2175 -4635 0
-2176 -4636 0
-2177 -4637 0
-2178 -4638 0
-2179 -4639 0
-2180 -4640 0
-2181 -4641 0
-2182 -4642 0
-2183 -4643 0
-2184 -4644 0
-2185 -4645 0
-2186 -4646 0
-2187 -4647 0
-2188 -4648 0
-2189 -4649 0
-2190 -4650 0
-2191 -4651 0
-2192 -4652 0
-2193 -4653 0
-2194 -4654 0
-2195 -4655 0
-2196 -4656 0
-2197 -4657 0
-2198 -4658 0
-2199 -4659 0
-2200 -4660 0
-2201 -4661 0
-2202 -4662 0
-2203 -4663 0
-2204 -4664 0
-2205 -4665 0
-2206 -4666 0
-2207 -4667 0
-2208 -4668 0
-2209 -4669 0
-2210 -4670 0
-2211 -4671 0
-2212 -4672 0
-2213 -4673 0
-2214 -4674 0
-2215 -4675 0
-2216 -4676 0
-2217 -4677 0
-2218 -4678 0
-2219 -4679 0
-2220 -4680 0
-2221 -361 0
-2222 -362 0
-2223 -363 0
-2224 -364 0
-2225 -365 0
-2226 -366 0
-2227 -367 0
-2228 -368 0
-2229 -369 0
-2230 -370 0
-2231 -371 0
-2232 -372 0
-2233 -373 0
-2234 -374 0
-2235 -375 0
-2236 -376 0
-2237 -377 0
-2238 -378 0
-2239 -379 0
-2240 -380 0
-2241 -381 0
-2242 -382 0
-2243 -383 0
-2244 -384 0
-2245 -385 0
-2246 -386 0
-2247 -387 0
-2248 -388 0
-2249 -389 0
-2250 -390 0
-2251 -391 0
-2252 -392 0
-2253 -393 0
-2254 -394 0
-2255 -395 0
-2256 -396 0
-2257 -397 0
-2258 -398 0
-2259 -399 0
-2260 -400 0
-2261 -401 0
-2262 -402 0
-2263 -403 0
-2264 -404 0
-2265 -405 0
-2266 -406 0
-2267 -407 0
-2268 -408 0
-2269 -409 0
-2270 -410 0
-2271 -411 0
-2272 -412 0
-2273 -413 0
-2274 -414 0
-2275 -415 0
-2276 -416 0
-2277 -417 0
-2278 -418 0
-2279 -419 0
-2280 -420 0
-2221 -481 0
-2222 -482 0
-2223 -483 0
-2224 -484 0
-2225 -485 0
-2226 -486 0
-2227 -487 0
-2228 -488 0
-2229 -489 0
-2230 -490 0
-2231 -491 0
-2232 -492 0
-2233 -493 0
-2234 -494 0
-2235 -495 0
-2236 -496 0
-2237 -497 0
-2238 -498 0
-2239 -499 0
-2240 -500 0
-2241 -501 0
-2242 -502 0
-2243 -503 0
-2244 -504 0
-2245 -505 0
-2246 -506 0
-2247 -507 0
-2248 -508 0
-2249 -509 0
-2250 -510 0
-2251 -511 0
-2252 -512 0
-2253 -513 0
-2254 -514 0
-2255 -515 0
-2256 -516 0
-2257 -517 0
-2258 -518 0
-2259 -519 0
-2260 -520 0
-2261 -521 0
-2262 -522 0
-2263 -523 0
-2264 -524 0
-2265 -525 0
-2266 -526 0
-2267 -527 0
-2268 -528 0
-2269 -529 0
-2270 -530 0
-2271 -531 0
-2272 -532 0
-2273 -533 0
-2274 -534 0
-2275 -535 0
-2276 -536 0
-2277 -537 0
-2278 -538 0
-2279 -539 0
-2280 -540 0
-2221 -841 0
-2222 -842 0
-2223 -843 0
-2224 -844 0
-2225 -845 0
-2226 -846 0
-2227 -847 0
-2228 -848 0
-2229 -849 0
-2230 -850 0
-2231 -851 0
-2232 -852 0
-2233 -853 0
-2234 -854 0
-2235 -855 0
-2236 -856 0
-2237 -857 0
-2238 -858 0
-2239 -859 0
-2240 -860 0
-2241 -861 0
-2242 -862 0
-2243 -863 0
-2244 -864 0
-2245 -865 0
-2246 -866 0
-2247 -867 0
-2248 -868 0
-2249 -869 0
-2250 -870 0
-2251 -871 0
-2252 -872 0
-2253 -873 0
-2254 -874 0
-2255 -875 0
-2256 -876 0
-2257 -877 0
-2258 -878 0
-2259 -879 0
-2260 -880 0
-2261 -881 0
-2262 -882 0
-2263 -883 0
-2264 -884 0
-2265 -885 0
-2266 -886 0
-2267 -887 0
-2268 -888 0
-2269 -889 0
-2270 -890 0
-2271 -891 0
-2272 -892 0
-2273 -893 0
-2274 -894 0
-2275 -895 0
-2276 -896 0
-2277 -897 0
-2278 -898 0
-2279 -899 0
-2280 -900 0
-2221 -1081 0
-2222 -1082 0
-2223 -1083 0
-2224 -1084 0
-2225 -1085 0
-2226 -1086 0
-2227 -1087 0
-2228 -1088 0
-2229 -1089 0
-2230 -1090 0
-2231 -1091 0
-2232 -1092 0
-2233 -1093 0
-2234 -1094 0
-2235 -1095 0
-2236 -1096 0
-2237 -1097 0
-2238 -1098 0
-2239 -1099 0
-2240 -1100 0
-2241 -1101 0
-2242 -1102 0
-2243 -1103 0
-2244 -1104 0
-2245 -1105 0
-2246 -1106 0
-2247 -1107 0
-2248 -1108 0
-2249 -1109 0
-2250 -1110 0
-2251 -1111 0
-2252 -1112 0
-2253 -1113 0
-2254 -1114 0
-2255 -1115 0
-2256 -1116 0
-2257 -1117 0
-2258 -1118 0
-2259 -1119 0
-2260 -1120 0
-2261 -1121 0
-2262 -1122 0
-2263 -1123 0
-2264 -1124 0
-2265 -1125 0
-2266 -1126 0
-2267 -1127 0
-2268 -1128 0
-2269 -1129 0
-2270 -1130 0
-2271 -1131 0
-2272 -1132 0
-2273 -1133 0
-2274 -1134 0
-2275 -1135 0
-2276 -1136 0
-2277 -1137 0
-2278 -1138 0
-2279 -1139 0
-2280 -1140 0
-2221 -1981 0
-2222 -1982 0
-2223 -1983 0
-2224 -1984 0
-2225 -1985 0
-2226 -1986 0
-2227 -1987 0
-2228 -1988 0
-2229 -1989 0
-2230 -1990 0
-2231 -1991 0
-2232 -1992 0
-2233 -1993 0
-2234 -1994 0
-2235 -1995 0
-2236 -1996 0
-2237 -1997 0
-2238 -1998 0
-2239 -1999 0
-2240 -2000 0
-2241 -2001 0
-2242 -2002 0
-2243 -2003 0
-2244 -2004 0
-2245 -2005 0
-2246 -2006 0
-2247 -2007 0
-2248 -2008 0
-2249 -2009 0
-2250 -2010 0
-2251 -2011 0
-2252 -2012 0
-2253 -2013 0
-2254 -2014 0
-2255 -2015 0
-2256 -2016 0
-2257 -2017 0
-2258 -2018 0
-2259 -2019 0
-2260 -2020 0
-2261 -2021 0
-2262 -2022 0
-2263 -2023 0
-2264 -2024 0
-2265 -2025 0
-2266 -2026 0
-2267 -2027 0
-2268 -2028 0
-2269 -2029 0
-2270 -2030 0
-2271 -2031 0
-2272 -2032 0
-2273 -2033 0
-2274 -2034 0
-2275 -2035 0
-2276 -2036 0
-2277 -2037 0
-2278 -2038 0
-2279 -2039 0
-2280 -2040 0
-2221 -2821 0
-2222 -2822 0
-2223 -2823 0
-2224 -2824 0
-2225 -2825 0
-2226 -2826 0
-2227 -2827 0
-2228 -2828 0
-2229 -2829 0
-2230 -2830 0
-2231 -2831 0
-2232 -2832 0
-2233 -2833 0
-2234 -2834 0
-2235 -2835 0
-2236 -2836 0
-2237 -2837 0
-2238 -2838 0
-2239 -2839 0
-2240 -2840 0
-2241 -2841 0
-2242 -2842 0
-2243 -2843 0
-2244 -2844 0
-2245 -2845 0
-2246 -2846 0
-2247 -2847 0
-2248 -2848 0
-2249 -2849 0
-2250 -2850 0
-2251 -2851 0
-2252 -2852 0
-2253 -2853 0
-2254 -2854 0
-2255 -2855 0
-2256 -2856 0
-2257 -2857 0
-2258 -2858 0
-2259 -2859 0
-2260 -2860 0
-2261 -2861 0
-2262 -2862 0
-2263 -2863 0
-2264 -2864 0
-2265 -2865 0
-2266 -2866 0
-2267 -2867 0
-2268 -2868 0
-2269 -2869 0
-2270 -2870 0
-2271 -2871 0
-2272 -2872 0
-2273 -2873 0
-2274 -2874 0
-2275 -2875 0
-2276 -2876 0
-2277 -2877 0
-2278 -2878 0
-2279 -2879 0
-2280 -2880 0
-2221 -3061 0
-2222 -3062 0
-2223 -3063 0
-2224 -3064 0
-2225 -3065 0
-2226 -3066 0
-2227 -3067 0
-2228 -3068 0
-2229 -3069 0
-2230 -3070 0
-2231 -3071 0
-2232 -3072 0
-2233 -3073 0
-2234 -3074 0
-2235 -3075 0
-2236 -3076 0
-2237 -3077 0
-2238 -3078 0
-2239 -3079 0
-2240 -3080 0
-2241 -3081 0
-2242 -3082 0
-2243 -3083 0
-2244 -3084 0
-2245 -3085 0
-2246 -3086 0
-2247 -3087 0
-2248 -3088 0
-2249 -3089 0
-2250 -3090 0
-2251 -3091 0
-2252 -3092 0
-2253 -3093 0
-2254 -3094 0
-2255 -3095 0
-2256 -3096 0
-2257 -3097 0
-2258 -3098 0
-2259 -3099 0
-2260 -3100 0
-2261 -3101 0
-2262 -3102 0
-2263 -3103 0
-2264 -3104 0
-2265 -3105 0
-2266 -3106 0
-2267 -3107 0
-2268 -3108 0
-2269 -3109 0
-2270 -3110 0
-2271 -3111 0
-2272 -3112 0
-2273 -3113 0
-2274 -3114 0
-2275 -3115 0
-2276 -3116 0
-2277 -3117 0
-2278 -3118 0
-2279 -3119 0
-2280 -3120 0
-2221 -3901 0
-2222 -3902 0
-2223 -3903 0
-2224 -3904 0
-2225 -3905 0
-2226 -3906 0
-2227 -3907 0
-2228 -3908 0
-2229 -3909 0
-2230 -3910 0
-2231 -3911 0
-2232 -3912 0
-2233 -3913 0
-2234 -3914 0
-2235 -3915 0
-2236 -3916 0
-2237 -3917 0
-2238 -3918 0
-2239 -3919 0
-2240 -3920 0
-2241 -3921 0
-2242 -3922 0
-2243 -3923 0
-2244 -3924 0
-2245 -3925 0
-2246 -3926 0
-2247 -3927 0
-2248 -3928 0
-2249 -3929 0
-2250 -3930 0
-2251 -3931 0
-2252 -3932 0
-2253 -3933 0
-2254 -3934 0
-2255 -3935 0
-2256 -3936 0
-2257 -3937 0
-2258 -3938 0
-2259 -3939 0
-2260 -3940 0
-2261 -3941 0
-2262 -3942 0
-2263 -3943 0
-2264 -3944 0
-2265 -3945 0
-2266 -3946 0
-2267 -3947 0
-2268 -3948 0
-2269 -3949 0
-2270 -3950 0
-2271 -3951 0
-2272 -3952 0
-2273 -3953 0
-2274 -3954 0
-2275 -3955 0
-2276 -3956 0
-2277 -3957 0
-2278 -3958 0
-2279 -3959 0
-2280 -3960 0
-2221 -4021 0
-2222 -4022 0
-2223 -4023 0
-2224 -4024 0
-2225 -4025 0
-2226 -4026 0
-2227 -4027 0
-2228 -4028 0
-2229 -4029 0
-2230 -4030 0
-2231 -4031 0
-2232 -4032 0
-2233 -4033 0
-2234 -4034 0
-2235 -4035 0
-2236 -4036 0
-2237 -4037 0
-2238 -4038 0
-2239 -4039 0
-2240 -4040 0
-2241 -4041 0
-2242 -4042 0
-2243 -4043 0
-2244 -4044 0
-2245 -4045 0
-2246 -4046 0
-2247 -4047 0
-2248 -4048 0
-2249 -4049 0
-2250 -4050 0
-2251 -4051 0
-2252 -4052 0
-2253 -4053 0
-2254 -4054 0
-2255 -4055 0
-2256 -4056 0
-2257 -4057 0
-2258 -4058 0
-2259 -4059 0
-2260 -4060 0
-2261 -4061 0
-2262 -4062 0
-2263 -4063 0
-2264 -4064 0
-2265 -4065 0
-2266 -4066 0
-2267 -4067 0
-2268 -4068 0
-2269 -4069 0
-2270 -4070 0
-2271 -4071 0
-2272 -4072 0
-2273 -4073 0
-2274 -4074 0
-2275 -4075 0
-2276 -4076 0
-2277 -4077 0
-2278 -4078 0
-2279 -4079 0
-2280 -4080 0
-2221 -4261 0
-2222 -4262 0
-2223 -4263 0
-2224 -4264 0
-2225 -4265 0
-2226 -4266 0
-2227 -4267 0
-2228 -4268 0
-2229 -4269 0
-2230 -4270 0
-2231 -4271 0
-2232 -4272 0
-2233 -4273 0
-2234 -4274 0
-2235 -4275 0
-2236 -4276 0
-2237 -4277 0
-2238 -4278 0
-2239 -4279 0
-2240 -4280 0
-2241 -4281 0
-2242 -4282 0
-2243 -4283 0
-2244 -4284 0
-2245 -4285 0
-2246 -4286 0
-2247 -4287 0
-2248 -4288 0
-2249 -4289 0
-2250 -4290 0
-2251 -4291 0
-2252 -4292 0
-2253 -4293 0
-2254 -4294 0
-2255 -4295 0
-2256 -4296 0
-2257 -4297 0
-2258 -4298 0
-2259 -4299 0
-2260 -4300 0
-2261 -4301 0
-2262 -4302 0
-2263 -4303 0
-2264 -4304 0
-2265 -4305 0
-2266 -4306 0
-2267 -4307 0
-2268 -4308 0
-2269 -4309 0
-2270 -4310 0
-2271 -4311 0
-2272 -4312 0
-2273 -4313 0
-2274 -4314 0
-2275 -4315 0
-2276 -4316 0
-2277 -4317 0
-2278 -4318 0
-2279 -4319 0
-2280 -4320 0
-2221 -4681 0
-2222 -4682 0
-2223 -4683 0
-2224 -4684 0
-2225 -4685 0
-2226 -4686 0
-2227 -4687 0
-2228 -4688 0
-2229 -4689 0
-2230 -4690 0
-2231 -4691 0
-2232 -4692 0
-2233 -4693 0
-2234 -4694 0
-2235 -4695 0
-2236 -4696 0
-2237 -4697 0
-2238 -4698 0
-2239 -4699 0
-2240 -4700 0
-2241 -4701 0
-2242 -4702 0
-2243 -4703 0
-2244 -4704 0
-2245 -4705 0
-2246 -4706 0
-2247 -4707 0
-2248 -4708 0
-2249 -4709 0
-2250 -4710 0
-2251 -4711 0
-2252 -4712 0
-2253 -4713 0
-2254 -4714 0
-2255 -4715 0
-2256 -4716 0
-2257 -4717 0
-2258 -4718 0
-2259 -4719 0
-2260 -4720 0
-2261 -4721 0
-2262 -4722 0
-2263 -4723 0
-2264 -4724 0
-2265 -4725 0
-2266 -4726 0
-2267 -4727 0
-2268 -4728 0
-2269 -4729 0
-2270 -4730 0
-2271 -4731 0
-2272 -4732 0
-2273 -4733 0
-2274 -4734 0
-2275 -4735 0
-2276 -4736 0
-2277 -4737 0
-2278 -4738 0
-2279 -4739 0
-2280 -4740 0
-2281 -241 0
-2282 -242 0
-2283 -243 0
-2284 -244 0
-2285 -245 0
-2286 -246 0
-2287 -247 0
-2288 -248 0
-2289 -249 0
-2290 -250 0
-2291 -251 0
-2292 -252 0
-2293 -253 0
-2294 -254 0
-2295 -255 0
-2296 -256 0
-2297 -257 0
-2298 -258 0
-2299 -259 0
-2300 -260 0
-2301 -261 0
-2302 -262 0
-2303 -263 0
-2304 -264 0
-2305 -265 0
-2306 -266 0
-2307 -267 0
-2308 -268 0
-2309 -269 0
-2310 -270 0
-2311 -271 0
-2312 -272 0
-2313 -273 0
-2314 -274 0
-2315 -275 0
-2316 -276 0
-2317 -277 0
-2318 -278 0
-2319 -279 0
-2320 -280 0
-2321 -281 0
-2322 -282 0
-2323 -283 0
-2324 -284 0
-2325 -285 0
-2326 -286 0
-2327 -287 0
-2328 -288 0
-2329 -289 0
-2330 -290 0
-2331 -291 0
-2332 -292 0
-2333 -293 0
-2334 -294 0
-2335 -295 0
-2336 -296 0
-2337 -297 0
-2338 -298 0
-2339 -299 0
-2340 -300 0
-2281 -541 0
-2282 -542 0
-2283 -543 0
-2284 -544 0
-2285 -545 0
-2286 -546 0
-2287 -547 0
-2288 -548 0
-2289 -549 0
-2290 -550 0
-2291 -551 0
-2292 -552 0
-2293 -553 0
-2294 -554 0
-2295 -555 0
-2296 -556 0
-2297 -557 0
-2298 -558 0
-2299 -559 0
-2300 -560 0
-2301 -561 0
-2302 -562 0
-2303 -563 0
-2304 -564 0
-2305 -565 0
-2306 -566 0
-2307 -567 0
-2308 -568 0
-2309 -569 0
-2310 -570 0
-2311 -571 0
-2312 -572 0
-2313 -573 0
-2314 -574 0
-2315 -575 0
-2316 -576 0
-2317 -577 0
-2318 -578 0
-2319 -579 0
-2320 -580 0
-2321 -581 0
-2322 -582 0
-2323 -583 0
-2324 -584 0
-2325 -585 0
-2326 -586 0
-2327 -587 0
-2328 -588 0
-2329 -589 0
-2330 -590 0
-2331 -591 0
-2332 -592 0
-2333 -593 0
-2334 -594 0
-2335 -595 0
-2336 -596 0
-2337 -597 0
-2338 -598 0
-2339 -599 0
-2340 -600 0
-2281 -961 0
-2282 -962 0
-2283 -963 0
-2284 -964 0
-2285 -965 0
-2286 -966 0
-2287 -967 0
-2288 -968 0
-2289 -969 0
-2290 -970 0
-2291 -971 0
-2292 -972 0
-2293 -973 0
-2294 -974 0
-2295 -975 0
-2296 -976 0
-2297 -977 0
-2298 -978 0
-2299 -979 0
-2300 -980 0
-2301 -981 0
-2302 -982 0
-2303 -983 0
-2304 -984 0
-2305 -985 0
-2306 -986 0
-2307 -987 0
-2308 -988 0
-2309 -989 0
-2310 -990 0
-2311 -991 0
-2312 -992 0
-2313 -993 0
-2314 -994 0
-2315 -995 0
-2316 -996 0
-2317 -997 0
-2318 -998 0
-2319 -999 0
-2320 -1000 0
-2321 -1001 0
-2322 -1002 0
-2323 -1003 0
-2324 -1004 0
-2325 -1005 0
-2326 -1006 0
-2327 -1007 0
-2328 -1008 0
-2329 -1009 0
-2330 -1010 0
-2331 -1011 0
-2332 -1012 0
-2333 -1013 0
-2334 -1014 0
-2335 -1015 0
-2336 -1016 0
-2337 -1017 0
-2338 -1018 0
-2339 -1019 0
-2340 -1020 0
-2281 -1141 0
-2282 -1142 0
-2283 -1143 0
-2284 -1144 0
-2285 -1145 0
-2286 -1146 0
-2287 -1147 0
-2288 -1148 0
-2289 -1149 0
-2290 -1150 0
-2291 -1151 0
-2292 -1152 0
-2293 -1153 0
-2294 -1154 0
-2295 -1155 0
-2296 -1156 0
-2297 -1157 0
-2298 -1158 0
-2299 -1159 0
-2300 -1160 0
-2301 -1161 0
-2302 -1162 0
-2303 -1163 0
-2304 -1164 0
-2305 -1165 0
-2306 -1166 0
-2307 -1167 0
-2308 -1168 0
-2309 -1169 0
-2310 -1170 0
-2311 -1171 0
-2312 -1172 0
-2313 -1173 0
-2314 -1174 0
-2315 -1175 0
-2316 -1176 0
-2317 -1177 0
-2318 -1178 0
-2319 -1179 0
-2320 -1180 0
-2321 -1181 0
-2322 -1182 0
-2323 -1183 0
-2324 -1184 0
-2325 -1185 0
-2326 -1186 0
-2327 -1187 0
-2328 -1188 0
-2329 -1189 0
-2330 -1190 0
-2331 -1191 0
-2332 -1192 0
-2333 -1193 0
-2334 -1194 0
-2335 -1195 0
-2336 -1196 0
-2337 -1197 0
-2338 -1198 0
-2339 -1199 0
-2340 -1200 0
-2281 -1261 0
-2282 -1262 0
-2283 -1263 0
-2284 -1264 0
-2285 -1265 0
-2286 -1266 0
-2287 -1267 0
-2288 -1268 0
-2289 -1269 0
-2290 -1270 0
-2291 -1271 0
-2292 -1272 0
-2293 -1273 0
-2294 -1274 0
-2295 -1275 0
-2296 -1276 0
-2297 -1277 0
-2298 -1278 0
-2299 -1279 0
-2300 -1280 0
-2301 -1281 0
-2302 -1282 0
-2303 -1283 0
-2304 -1284 0
-2305 -1285 0
-2306 -1286 0
-2307 -1287 0
-2308 -1288 0
-2309 -1289 0
-2310 -1290 0
-2311 -1291 0
-2312 -1292 0
-2313 -1293 0
-2314 -1294 0
-2315 -1295 0
-2316 -1296 0
-2317 -1297 0
-2318 -1298 0
-2319 -1299 0
-2320 -1300 0
-2321 -1301 0
-2322 -1302 0
-2323 -1303 0
-2324 -1304 0
-2325 -1305 0
-2326 -1306 0
-2327 -1307 0
-2328 -1308 0
-2329 -1309 0
-2330 -1310 0
-2331 -1311 0
-2332 -1312 0
-2333 -1313 0
-2334 -1314 0
-2335 -1315 0
-2336 -1316 0
-2337 -1317 0
-2338 -1318 0
-2339 -1319 0
-2340 -1320 0
-2281 -2161 0
-2282 -2162 0
-2283 -2163 0
-2284 -2164 0
-2285 -2165 0
-2286 -2166 0
-2287 -2167 0
-2288 -2168 0
-2289 -2169 0
-2290 -2170 0
-2291 -2171 0
-2292 -2172 0
-2293 -2173 0
-2294 -2174 0
-2295 -2175 0
-2296 -2176 0
-2297 -2177 0
-2298 -2178 0
-2299 -2179 0
-2300 -2180 0
-2301 -2181 0
-2302 -2182 0
-2303 -2183 0
-2304 -2184 0
-2305 -2185 0
-2306 -2186 0
-2307 -2187 0
-2308 -2188 0
-2309 -2189 0
-2310 -2190 0
-2311 -2191 0
-2312 -2192 0
-2313 -2193 0
-2314 -2194 0
-2315 -2195 0
-2316 -2196 0
-2317 -2197 0
-2318 -2198 0
-2319 -2199 0
-2320 -2200 0
-2321 -2201 0
-2322 -2202 0
-2323 -2203 0
-2324 -2204 0
-2325 -2205 0
-2326 -2206 0
-2327 -2207 0
-2328 -2208 0
-2329 -2209 0
-2330 -2210 0
-2331 -2211 0
-2332 -2212 0
-2333 -2213 0
-2334 -2214 0
-2335 -2215 0
-2336 -2216 0
-2337 -2217 0
-2338 -2218 0
-2339 -2219 0
-2340 -2220 0
-2341 -121 0
-2342 -122 0
-2343 -123 0
-2344 -124 0
-2345 -125 0
-2346 -126 0
-2347 -127 0
-2348 -128 0
-2349 -129 0
-2350 -130 0
-2351 -131 0
-2352 -132 0
-2353 -133 0
-2354 -134 0
-2355 -135 0
-2356 -136 0
-2357 -137 0
-2358 -138 0
-2359 -139 0
-2360 -140 0
-2361 -141 0
-2362 -142 0
-2363 -143 0
-2364 -144 0
-2365 -145 0
-2366 -146 0
-2367 -147 0
-2368 -148 0
-2369 -149 0
-2370 -150 0
-2371 -151 0
-2372 -152 0
-2373 -153 0
-2374 -154 0
-2375 -155 0
-2376 -156 0
-2377 -157 0
-2378 -158 0
-2379 -159 0
-2380 -160 0
-2381 -161 0
-2382 -162 0
-2383 -163 0
-2384 -164 0
-2385 -165 0
-2386 -166 0
-2387 -167 0
-2388 -168 0
-2389 -169 0
-2390 -170 0
-2391 -171 0
-2392 -172 0
-2393 -173 0
-2394 -174 0
-2395 -175 0
-2396 -176 0
-2397 -177 0
-2398 -178 0
-2399 -179 0
-2400 -180 0
-2341 -1441 0
-2342 -1442 0
-2343 -1443 0
-2344 -1444 0
-2345 -1445 0
-2346 -1446 0
-2347 -1447 0
-2348 -1448 0
-2349 -1449 0
-2350 -1450 0
-2351 -1451 0
-2352 -1452 0
-2353 -1453 0
-2354 -1454 0
-2355 -1455 0
-2356 -1456 0
-2357 -1457 0
-2358 -1458 0
-2359 -1459 0
-2360 -1460 0
-2361 -1461 0
-2362 -1462 0
-2363 -1463 0
-2364 -1464 0
-2365 -1465 0
-2366 -1466 0
-2367 -1467 0
-2368 -1468 0
-2369 -1469 0
-2370 -1470 0
-2371 -1471 0
-2372 -1472 0
-2373 -1473 0
-2374 -1474 0
-2375 -1475 0
-2376 -1476 0
-2377 -1477 0
-2378 -1478 0
-2379 -1479 0
-2380 -1480 0
-2381 -1481 0
-2382 -1482 0
-2383 -1483 0
-2384 -1484 0
-2385 -1485 0
-2386 -1486 0
-2387 -1487 0
-2388 -1488 0
-2389 -1489 0
-2390 -1490 0
-2391 -1491 0
-2392 -1492 0
-2393 -1493 0
-2394 -1494 0
-2395 -1495 0
-2396 -1496 0
-2397 -1497 0
-2398 -1498 0
-2399 -1499 0
-2400 -1500 0
-2341 -1561 0
-2342 -1562 0
-2343 -1563 0
-2344 -1564 0
-2345 -1565 0
-2346 -1566 0
-2347 -1567 0
-2348 -1568 0
-2349 -1569 0
-2350 -1570 0
-2351 -1571 0
-2352 -1572 0
-2353 -1573 0
-2354 -1574 0
-2355 -1575 0
-2356 -1576 0
-2357 -1577 0
-2358 -1578 0
-2359 -1579 0
-2360 -1580 0
-2361 -1581 0
-2362 -1582 0
-2363 -1583 0
-2364 -1584 0
-2365 -1585 0
-2366 -1586 0
-2367 -1587 0
-2368 -1588 0
-2369 -1589 0
-2370 -1590 0
-2371 -1591 0
-2372 -1592 0
-2373 -1593 0
-2374 -1594 0
-2375 -1595 0
-2376 -1596 0
-2377 -1597 0
-2378 -1598 0
-2379 -1599 0
-2380 -1600 0
-2381 -1601 0
-2382 -1602 0
-2383 -1603 0
-2384 -1604 0
-2385 -1605 0
-2386 -1606 0
-2387 -1607 0
-2388 -1608 0
-2389 -1609 0
-2390 -1610 0
-2391 -1611 0
-2392 -1612 0
-2393 -1613 0
-2394 -1614 0
-2395 -1615 0
-2396 -1616 0
-2397 -1617 0
-2398 -1618 0
-2399 -1619 0
-2400 -1620 0
-2341 -1921 0
-2342 -1922 0
-2343 -1923 0
-2344 -1924 0
-2345 -1925 0
-2346 -1926 0
-2347 -1927 0
-2348 -1928 0
-2349 -1929 0
-2350 -1930 0
-2351 -1931 0
-2352 -1932 0
-2353 -1933 0
-2354 -1934 0
-2355 -1935 0
-2356 -1936 0
-2357 -1937 0
-2358 -1938 0
-2359 -1939 0
-2360 -1940 0
-2361 -1941 0
-2362 -1942 0
-2363 -1943 0
-2364 -1944 0
-2365 -1945 0
-2366 -1946 0
-2367 -1947 0
-2368 -1948 0
-2369 -1949 0
-2370 -1950 0
-2371 -1951 0
-2372 -1952 0
-2373 -1953 0
-2374 -1954 0
-2375 -1955 0
-2376 -1956 0
-2377 -1957 0
-2378 -1958 0
-2379 -1959 0
-2380 -1960 0
-2381 -1961 0
-2382 -1962 0
-2383 -1963 0
-2384 -1964 0
-2385 -1965 0
-2386 -1966 0
-2387 -1967 0
-2388 -1968 0
-2389 -1969 0
-2390 -1970 0
-2391 -1971 0
-2392 -1972 0
-2393 -1973 0
-2394 -1974 0
-2395 -1975 0
-2396 -1976 0
-2397 -1977 0
-2398 -1978 0
-2399 -1979 0
-2400 -1980 0
-2341 -3721 0
-2342 -3722 0
-2343 -3723 0
-2344 -3724 0
-2345 -3725 0
-2346 -3726 0
-2347 -3727 0
-2348 -3728 0
-2349 -3729 0
-2350 -3730 0
-2351 -3731 0
-2352 -3732 0
-2353 -3733 0
-2354 -3734 0
-2355 -3735 0
-2356 -3736 0
-2357 -3737 0
-2358 -3738 0
-2359 -3739 0
-2360 -3740 0
-2361 -3741 0
-2362 -3742 0
-2363 -3743 0
-2364 -3744 0
-2365 -3745 0
-2366 -3746 0
-2367 -3747 0
-2368 -3748 0
-2369 -3749 0
-2370 -3750 0
-2371 -3751 0
-2372 -3752 0
-2373 -3753 0
-2374 -3754 0
-2375 -3755 0
-2376 -3756 0
-2377 -3757 0
-2378 -3758 0
-2379 -3759 0
-2380 -3760 0
-2381 -3761 0
-2382 -3762 0
-2383 -3763 0
-2384 -3764 0
-2385 -3765 0
-2386 -3766 0
-2387 -3767 0
-2388 -3768 0
-2389 -3769 0
-2390 -3770 0
-2391 -3771 0
-2392 -3772 0
-2393 -3773 0
-2394 -3774 0
-2395 -3775 0
-2396 -3776 0
-2397 -3777 0
-2398 -3778 0
-2399 -3779 0
-2400 -3780 0
-2341 -4081 0
-2342 -4082 0
-2343 -4083 0
-2344 -4084 0
-2345 -4085 0
-2346 -4086 0
-2347 -4087 0
-2348 -4088 0
-2349 -4089 0
-2350 -4090 0
-2351 -4091 0
-2352 -4092 0
-2353 -4093 0
-2354 -4094 0
-2355 -4095 0
-2356 -4096 0
-2357 -4097 0
-2358 -4098 0
-2359 -4099 0
-2360 -4100 0
-2361 -4101 0
-2362 -4102 0
-2363 -4103 0
-2364 -4104 0
-2365 -4105 0
-2366 -4106 0
-2367 -4107 0
-2368 -4108 0
-2369 -4109 0
-2370 -4110 0
-2371 -4111 0
-2372 -4112 0
-2373 -4113 0
-2374 -4114 0
-2375 -4115 0
-2376 -4116 0
-2377 -4117 0
-2378 -4118 0
-2379 -4119 0
-2380 -4120 0
-2381 -4121 0
-2382 -4122 0
-2383 -4123 0
-2384 -4124 0
-2385 -4125 0
-2386 -4126 0
-2387 -4127 0
-2388 -4128 0
-2389 -4129 0
-2390 -4130 0
-2391 -4131 0
-2392 -4132 0
-2393 -4133 0
-2394 -4134 0
-2395 -4135 0
-2396 -4136 0
-2397 -4137 0
-2398 -4138 0
-2399 -4139 0
-2400 -4140 0
-2341 -4321 0
-2342 -4322 0
-2343 -4323 0
-2344 -4324 0
-2345 -4325 0
-2346 -4326 0
-2347 -4327 0
-2348 -4328 0
-2349 -4329 0
-2350 -4330 0
-2351 -4331 0
-2352 -4332 0
-2353 -4333 0
-2354 -4334 0
-2355 -4335 0
-2356 -4336 0
-2357 -4337 0
-2358 -4338 0
-2359 -4339 0
-2360 -4340 0
-2361 -4341 0
-2362 -4342 0
-2363 -4343 0
-2364 -4344 0
-2365 -4345 0
-2366 -4346 0
-2367 -4347 0
-2368 -4348 0
-2369 -4349 0
-2370 -4350 0
-2371 -4351 0
-2372 -4352 0
-2373 -4353 0
-2374 -4354 0
-2375 -4355 0
-2376 -4356 0
-2377 -4357 0
-2378 -4358 0
-2379 -4359 0
-2380 -4360 0
-2381 -4361 0
-2382 -4362 0
-2383 -4363 0
-2384 -4364 0
-2385 -4365 0
-2386 -4366 0
-2387 -4367 0
-2388 -4368 0
-2389 -4369 0
-2390 -4370 0
-2391 -4371 0
-2392 -4372 0
-2393 -4373 0
-2394 -4374 0
-2395 -4375 0
-2396 -4376 0
-2397 -4377 0
-2398 -4378 0
-2399 -4379 0
-2400 -4380 0
-2401 -781 0
-2402 -782 0
-2403 -783 0
-2404 -784 0
-2405 -785 0
-2406 -786 0
-2407 -787 0
-2408 -788 0
-2409 -789 0
-2410 -790 0
-2411 -791 0
-2412 -792 0
-2413 -793 0
-2414 -794 0
-2415 -795 0
-2416 -796 0
-2417 -797 0
-2418 -798 0
-2419 -799 0
-2420 -800 0
-2421 -801 0
-2422 -802 0
-2423 -803 0
-2424 -804 0
-2425 -805 0
-2426 -806 0
-2427 -807 0
-2428 -808 0
-2429 -809 0
-2430 -810 0
-2431 -811 0
-2432 -812 0
-2433 -813 0
-2434 -814 0
-2435 -815 0
-2436 -816 0
-2437 -817 0
-2438 -818 0
-2439 -819 0
-2440 -820 0
-2441 -821 0
-2442 -822 0
-2443 -823 0
-2444 -824 0
-2445 -825 0
-2446 -826 0
-2447 -827 0
-2448 -828 0
-2449 -829 0
-2450 -830 0
-2451 -831 0
-2452 -832 0
-2453 -833 0
-2454 -834 0
-2455 -835 0
-2456 -836 0
-2457 -837 0
-2458 -838 0
-2459 -839 0
-2460 -840 0
-2461 -601 0
-2462 -602 0
-2463 -603 0
-2464 -604 0
-2465 -605 0
-2466 -606 0
-2467 -607 0
-2468 -608 0
-2469 -609 0
-2470 -610 0
-2471 -611 0
-2472 -612 0
-2473 -613 0
-2474 -614 0
-2475 -615 0
-2476 -616 0
-2477 -617 0
-2478 -618 0
-2479 -619 0
-2480 -620 0
-2481 -621 0
-2482 -622 0
-2483 -623 0
-2484 -624 0
-2485 -625 0
-2486 -626 0
-2487 -627 0
-2488 -628 0
-2489 -629 0
-2490 -630 0
-2491 -631 0
-2492 -632 0
-2493 -633 0
-2494 -634 0
-2495 -635 0
-2496 -636 0
-2497 -637 0
-2498 -638 0
-2499 -639 0
-2500 -640 0
-2501 -641 0
-2502 -642 0
-2503 -643 0
-2504 -644 0
-2505 -645 0
-2506 -646 0
-2507 -647 0
-2508 -648 0
-2509 -649 0
-2510 -650 0
-2511 -651 0
-2512 -652 0
-2513 -653 0
-2514 -654 0
-2515 -655 0
-2516 -656 0
-2517 -657 0
-2518 -658 0
-2519 -659 0
-2520 -660 0
-2461 -4261 0
-2462 -4262 0
-2463 -4263 0
-2464 -4264 0
-2465 -4265 0
-2466 -4266 0
-2467 -4267 0
-2468 -4268 0
-2469 -4269 0
-2470 -4270 0
-2471 -4271 0
-2472 -4272 0
-2473 -4273 0
-2474 -4274 0
-2475 -4275 0
-2476 -4276 0
-2477 -4277 0
-2478 -4278 0
-2479 -4279 0
-2480 -4280 0
-2481 -4281 0
-2482 -4282 0
-2483 -4283 0
-2484 -4284 0
-2485 -4285 0
-2486 -4286 0
-2487 -4287 0
-2488 -4288 0
-2489 -4289 0
-2490 -4290 0
-2491 -4291 0
-2492 -4292 0
-2493 -4293 0
-2494 -4294 0
-2495 -4295 0
-2496 -4296 0
-2497 -4297 0
-2498 -4298 0
-2499 -4299 0
-2500 -4300 0
-2501 -4301 0
-2502 -4302 0
-2503 -4303 0
-2504 -4304 0
-2505 -4305 0
-2506 -4306 0
-2507 -4307 0
-2508 -4308 0
-2509 -4309 0
-2510 -4310 0
-2511 -4311 0
-2512 -4312 0
-2513 -4313 0
-2514 -4314 0
-2515 -4315 0
-2516 -4316 0
-2517 -4317 0
-2518 -4318 0
-2519 -4319 0
-2520 -4320 0
-2521 -721 0
-2522 -722 0
-2523 -723 0
-2524 -724 0
-2525 -725 0
-2526 -726 0
-2527 -727 0
-2528 -728 0
-2529 -729 0
-2530 -730 0
-2531 -731 0
-2532 -732 0
-2533 -733 0
-2534 -734 0
-2535 -735 0
-2536 -736 0
-2537 -737 0
-2538 -738 0
-2539 -739 0
-2540 -740 0
-2541 -741 0
-2542 -742 0
-2543 -743 0
-2544 -744 0
-2545 -745 0
-2546 -746 0
-2547 -747 0
-2548 -748 0
-2549 -749 0
-2550 -750 0
-2551 -751 0
-2552 -752 0
-2553 -753 0
-2554 -754 0
-2555 -755 0
-2556 -756 0
-2557 -757 0
-2558 -758 0
-2559 -759 0
-2560 -760 0
-2561 -761 0
-2562 -762 0
-2563 -763 0
-2564 -764 0
-2565 -765 0
-2566 -766 0
-2567 -767 0
-2568 -768 0
-2569 -769 0
-2570 -770 0
-2571 -771 0
-2572 -772 0
-2573 -773 0
-2574 -774 0
-2575 -775 0
-2576 -776 0
-2577 -777 0
-2578 -778 0
-2579 -779 0
-2580 -780 0
-2521 -1621 0
-2522 -1622 0
-2523 -1623 0
-2524 -1624 0
-2525 -1625 0
-2526 -1626 0
-2527 -1627 0
-2528 -1628 0
-2529 -1629 0
-2530 -1630 0
-2531 -1631 0
-2532 -1632 0
-2533 -1633 0
-2534 -1634 0
-2535 -1635 0
-2536 -1636 0
-2537 -1637 0
-2538 -1638 0
-2539 -1639 0
-2540 -1640 0
-2541 -1641 0
-2542 -1642 0
-2543 -1643 0
-2544 -1644 0
-2545 -1645 0
-2546 -1646 0
-2547 -1647 0
-2548 -1648 0
-2549 -1649 0
-2550 -1650 0
-2551 -1651 0
-2552 -1652 0
-2553 -1653 0
-2554 -1654 0
-2555 -1655 0
-2556 -1656 0
-2557 -1657 0
-2558 -1658 0
-2559 -1659 0
-2560 -1660 0
-2561 -1661 0
-2562 -1662 0
-2563 -1663 0
-2564 -1664 0
-2565 -1665 0
-2566 -1666 0
-2567 -1667 0
-2568 -1668 0
-2569 -1669 0
-2570 -1670 0
-2571 -1671 0
-2572 -1672 0
-2573 -1673 0
-2574 -1674 0
-2575 -1675 0
-2576 -1676 0
-2577 -1677 0
-2578 -1678 0
-2579 -1679 0
-2580 -1680 0
-2521 -2161 0
-2522 -2162 0
-2523 -2163 0
-2524 -2164 0
-2525 -2165 0
-2526 -2166 0
-2527 -2167 0
-2528 -2168 0
-2529 -2169 0
-2530 -2170 0
-2531 -2171 0
-2532 -2172 0
-2533 -2173 0
-2534 -2174 0
-2535 -2175 0
-2536 -2176 0
-2537 -2177 0
-2538 -2178 0
-2539 -2179 0
-2540 -2180 0
-2541 -2181 0
-2542 -2182 0
-2543 -2183 0
-2544 -2184 0
-2545 -2185 0
-2546 -2186 0
-2547 -2187 0
-2548 -2188 0
-2549 -2189 0
-2550 -2190 0
-2551 -2191 0
-2552 -2192 0
-2553 -2193 0
-2554 -2194 0
-2555 -2195 0
-2556 -2196 0
-2557 -2197 0
-2558 -2198 0
-2559 -2199 0
-2560 -2200 0
-2561 -2201 0
-2562 -2202 0
-2563 -2203 0
-2564 -2204 0
-2565 -2205 0
-2566 -2206 0
-2567 -2207 0
-2568 -2208 0
-2569 -2209 0
-2570 -2210 0
-2571 -2211 0
-2572 -2212 0
-2573 -2213 0
-2574 -2214 0
-2575 -2215 0
-2576 -2216 0
-2577 -2217 0
-2578 -2218 0
-2579 -2219 0
-2580 -2220 0
-2521 -4621 0
-2522 -4622 0
-2523 -4623 0
-2524 -4624 0
-2525 -4625 0
-2526 -4626 0
-2527 -4627 0
-2528 -4628 0
-2529 -4629 0
-2530 -4630 0
-2531 -4631 0
-2532 -4632 0
-2533 -4633 0
-2534 -4634 0
-2535 -4635 0
-2536 -4636 0
-2537 -4637 0
-2538 -4638 0
-2539 -4639 0
-2540 -4640 0
-2541 -4641 0
-2542 -4642 0
-2543 -4643 0
-2544 -4644 0
-2545 -4645 0
-2546 -4646 0
-2547 -4647 0
-2548 -4648 0
-2549 -4649 0
-2550 -4650 0
-2551 -4651 0
-2552 -4652 0
-2553 -4653 0
-2554 -4654 0
-2555 -4655 0
-2556 -4656 0
-2557 -4657 0
-2558 -4658 0
-2559 -4659 0
-2560 -4660 0
-2561 -4661 0
-2562 -4662 0
-2563 -4663 0
-2564 -4664 0
-2565 -4665 0
-2566 -4666 0
-2567 -4667 0
-2568 -4668 0
-2569 -4669 0
-2570 -4670 0
-2571 -4671 0
-2572 -4672 0
-2573 -4673 0
-2574 -4674 0
-2575 -4675 0
-2576 -4676 0
-2577 -4677 0
-2578 -4678 0
-2579 -4679 0
-2580 -4680 0
-2581 -121 0
-2582 -122 0
-2583 -123 0
-2584 -124 0
-2585 -125 0
-2586 -126 0
-2587 -127 0
-2588 -128 0
-2589 -129 0
-2590 -130 0
-2591 -131 0
-2592 -132 0
-2593 -133 0
-2594 -134 0
-2595 -135 0
-2596 -136 0
-2597 -137 0
-2598 -138 0
-2599 -139 0
-2600 -140 0
-2601 -141 0
-2602 -142 0
-2603 -143 0
-2604 -144 0
-2605 -145 0
-2606 -146 0
-2607 -147 0
-2608 -148 0
-2609 -149 0
-2610 -150 0
-2611 -151 0
-2612 -152 0
-2613 -153 0
-2614 -154 0
-2615 -155 0
-2616 -156 0
-2617 -157 0
-2618 -158 0
-2619 -159 0
-2620 -160 0
-2621 -161 0
-2622 -162 0
-2623 -163 0
-2624 -164 0
-2625 -165 0
-2626 -166 0
-2627 -167 0
-2628 -168 0
-2629 -169 0
-2630 -170 0
-2631 -171 0
-2632 -172 0
-2633 -173 0
-2634 -174 0
-2635 -175 0
-2636 -176 0
-2637 -177 0
-2638 -178 0
-2639 -179 0
-2640 -180 0
-2581 -1021 0
-2582 -1022 0
-2583 -1023 0
-2584 -1024 0
-2585 -1025 0
-2586 -1026 0
-2587 -1027 0
-2588 -1028 0
-2589 -1029 0
-2590 -1030 0
-2591 -1031 0
-2592 -1032 0
-2593 -1033 0
-2594 -1034 0
-2595 -1035 0
-2596 -1036 0
-2597 -1037 0
-2598 -1038 0
-2599 -1039 0
-2600 -1040 0
-2601 -1041 0
-2602 -1042 0
-2603 -1043 0
-2604 -1044 0
-2605 -1045 0
-2606 -1046 0
-2607 -1047 0
-2608 -1048 0
-2609 -1049 0
-2610 -1050 0
-2611 -1051 0
-2612 -1052 0
-2613 -1053 0
-2614 -1054 0
-2615 -1055 0
-2616 -1056 0
-2617 -1057 0
-2618 -1058 0
-2619 -1059 0
-2620 -1060 0
-2621 -1061 0
-2622 -1062 0
-2623 -1063 0
-2624 -1064 0
-2625 -1065 0
-2626 -1066 0
-2627 -1067 0
-2628 -1068 0
-2629 -1069 0
-2630 -1070 0
-2631 -1071 0
-2632 -1072 0
-2633 -1073 0
-2634 -1074 0
-2635 -1075 0
-2636 -1076 0
-2637 -1077 0
-2638 -1078 0
-2639 -1079 0
-2640 -1080 0
-2581 -1621 0
-2582 -1622 0
-2583 -1623 0
-2584 -1624 0
-2585 -1625 0
-2586 -1626 0
-2587 -1627 0
-2588 -1628 0
-2589 -1629 0
-2590 -1630 0
-2591 -1631 0
-2592 -1632 0
-2593 -1633 0
-2594 -1634 0
-2595 -1635 0
-2596 -1636 0
-2597 -1637 0
-2598 -1638 0
-2599 -1639 0
-2600 -1640 0
-2601 -1641 0
-2602 -1642 0
-2603 -1643 0
-2604 -1644 0
-2605 -1645 0
-2606 -1646 0
-2607 -1647 0
-2608 -1648 0
-2609 -1649 0
-2610 -1650 0
-2611 -1651 0
-2612 -1652 0
-2613 -1653 0
-2614 -1654 0
-2615 -1655 0
-2616 -1656 0
-2617 -1657 0
-2618 -1658 0
-2619 -1659 0
-2620 -1660 0
-2621 -1661 0
-2622 -1662 0
-2623 -1663 0
-2624 -1664 0
-2625 -1665 0
-2626 -1666 0
-2627 -1667 0
-2628 -1668 0
-2629 -1669 0
-2630 -1670 0
-2631 -1671 0
-2632 -1672 0
-2633 -1673 0
-2634 -1674 0
-2635 -1675 0
-2636 -1676 0
-2637 -1677 0
-2638 -1678 0
-2639 -1679 0
-2640 -1680 0
-2581 -2041 0
-2582 -2042 0
-2583 -2043 0
-2584 -2044 0
-2585 -2045 0
-2586 -2046 0
-2587 -2047 0
-2588 -2048 0
-2589 -2049 0
-2590 -2050 0
-2591 -2051 0
-2592 -2052 0
-2593 -2053 0
-2594 -2054 0
-2595 -2055 0
-2596 -2056 0
-2597 -2057 0
-2598 -2058 0
-2599 -2059 0
-2600 -2060 0
-2601 -2061 0
-2602 -2062 0
-2603 -2063 0
-2604 -2064 0
-2605 -2065 0
-2606 -2066 0
-2607 -2067 0
-2608 -2068 0
-2609 -2069 0
-2610 -2070 0
-2611 -2071 0
-2612 -2072 0
-2613 -2073 0
-2614 -2074 0
-2615 -2075 0
-2616 -2076 0
-2617 -2077 0
-2618 -2078 0
-2619 -2079 0
-2620 -2080 0
-2621 -2081 0
-2622 -2082 0
-2623 -2083 0
-2624 -2084 0
-2625 -2085 0
-2626 -2086 0
-2627 -2087 0
-2628 -2088 0
-2629 -2089 0
-2630 -2090 0
-2631 -2091 0
-2632 -2092 0
-2633 -2093 0
-2634 -2094 0
-2635 -2095 0
-2636 -2096 0
-2637 -2097 0
-2638 -2098 0
-2639 -2099 0
-2640 -2100 0
-2581 -2161 0
-2582 -2162 0
-2583 -2163 0
-2584 -2164 0
-2585 -2165 0
-2586 -2166 0
-2587 -2167 0
-2588 -2168 0
-2589 -2169 0
-2590 -2170 0
-2591 -2171 0
-2592 -2172 0
-2593 -2173 0
-2594 -2174 0
-2595 -2175 0
-2596 -2176 0
-2597 -2177 0
-2598 -2178 0
-2599 -2179 0
-2600 -2180 0
-2601 -2181 0
-2602 -2182 0
-2603 -2183 0
-2604 -2184 0
-2605 -2185 0
-2606 -2186 0
-2607 -2187 0
-2608 -2188 0
-2609 -2189 0
-2610 -2190 0
-2611 -2191 0
-2612 -2192 0
-2613 -2193 0
-2614 -2194 0
-2615 -2195 0
-2616 -2196 0
-2617 -2197 0
-2618 -2198 0
-2619 -2199 0
-2620 -2200 0
-2621 -2201 0
-2622 -2202 0
-2623 -2203 0
-2624 -2204 0
-2625 -2205 0
-2626 -2206 0
-2627 -2207 0
-2628 -2208 0
-2629 -2209 0
-2630 -2210 0
-2631 -2211 0
-2632 -2212 0
-2633 -2213 0
-2634 -2214 0
-2635 -2215 0
-2636 -2216 0
-2637 -2217 0
-2638 -2218 0
-2639 -2219 0
-2640 -2220 0
-2581 -2821 0
-2582 -2822 0
-2583 -2823 0
-2584 -2824 0
-2585 -2825 0
-2586 -2826 0
-2587 -2827 0
-2588 -2828 0
-2589 -2829 0
-2590 -2830 0
-2591 -2831 0
-2592 -2832 0
-2593 -2833 0
-2594 -2834 0
-2595 -2835 0
-2596 -2836 0
-2597 -2837 0
-2598 -2838 0
-2599 -2839 0
-2600 -2840 0
-2601 -2841 0
-2602 -2842 0
-2603 -2843 0
-2604 -2844 0
-2605 -2845 0
-2606 -2846 0
-2607 -2847 0
-2608 -2848 0
-2609 -2849 0
-2610 -2850 0
-2611 -2851 0
-2612 -2852 0
-2613 -2853 0
-2614 -2854 0
-2615 -2855 0
-2616 -2856 0
-2617 -2857 0
-2618 -2858 0
-2619 -2859 0
-2620 -2860 0
-2621 -2861 0
-2622 -2862 0
-2623 -2863 0
-2624 -2864 0
-2625 -2865 0
-2626 -2866 0
-2627 -2867 0
-2628 -2868 0
-2629 -2869 0
-2630 -2870 0
-2631 -2871 0
-2632 -2872 0
-2633 -2873 0
-2634 -2874 0
-2635 -2875 0
-2636 -2876 0
-2637 -2877 0
-2638 -2878 0
-2639 -2879 0
-2640 -2880 0
-2581 -3241 0
-2582 -3242 0
-2583 -3243 0
-2584 -3244 0
-2585 -3245 0
-2586 -3246 0
-2587 -3247 0
-2588 -3248 0
-2589 -3249 0
-2590 -3250 0
-2591 -3251 0
-2592 -3252 0
-2593 -3253 0
-2594 -3254 0
-2595 -3255 0
-2596 -3256 0
-2597 -3257 0
-2598 -3258 0
-2599 -3259 0
-2600 -3260 0
-2601 -3261 0
-2602 -3262 0
-2603 -3263 0
-2604 -3264 0
-2605 -3265 0
-2606 -3266 0
-2607 -3267 0
-2608 -3268 0
-2609 -3269 0
-2610 -3270 0
-2611 -3271 0
-2612 -3272 0
-2613 -3273 0
-2614 -3274 0
-2615 -3275 0
-2616 -3276 0
-2617 -3277 0
-2618 -3278 0
-2619 -3279 0
-2620 -3280 0
-2621 -3281 0
-2622 -3282 0
-2623 -3283 0
-2624 -3284 0
-2625 -3285 0
-2626 -3286 0
-2627 -3287 0
-2628 -3288 0
-2629 -3289 0
-2630 -3290 0
-2631 -3291 0
-2632 -3292 0
-2633 -3293 0
-2634 -3294 0
-2635 -3295 0
-2636 -3296 0
-2637 -3297 0
-2638 -3298 0
-2639 -3299 0
-2640 -3300 0
-2581 -3361 0
-2582 -3362 0
-2583 -3363 0
-2584 -3364 0
-2585 -3365 0
-2586 -3366 0
-2587 -3367 0
-2588 -3368 0
-2589 -3369 0
-2590 -3370 0
-2591 -3371 0
-2592 -3372 0
-2593 -3373 0
-2594 -3374 0
-2595 -3375 0
-2596 -3376 0
-2597 -3377 0
-2598 -3378 0
-2599 -3379 0
-2600 -3380 0
-2601 -3381 0
-2602 -3382 0
-2603 -3383 0
-2604 -3384 0
-2605 -3385 0
-2606 -3386 0
-2607 -3387 0
-2608 -3388 0
-2609 -3389 0
-2610 -3390 0
-2611 -3391 0
-2612 -3392 0
-2613 -3393 0
-2614 -3394 0
-2615 -3395 0
-2616 -3396 0
-2617 -3397 0
-2618 -3398 0
-2619 -3399 0
-2620 -3400 0
-2621 -3401 0
-2622 -3402 0
-2623 -3403 0
-2624 -3404 0
-2625 -3405 0
-2626 -3406 0
-2627 -3407 0
-2628 -3408 0
-2629 -3409 0
-2630 -3410 0
-2631 -3411 0
-2632 -3412 0
-2633 -3413 0
-2634 -3414 0
-2635 -3415 0
-2636 -3416 0
-2637 -3417 0
-2638 -3418 0
-2639 -3419 0
-2640 -3420 0
-2581 -3421 0
-2582 -3422 0
-2583 -3423 0
-2584 -3424 0
-2585 -3425 0
-2586 -3426 0
-2587 -3427 0
-2588 -3428 0
-2589 -3429 0
-2590 -3430 0
-2591 -3431 0
-2592 -3432 0
-2593 -3433 0
-2594 -3434 0
-2595 -3435 0
-2596 -3436 0
-2597 -3437 0
-2598 -3438 0
-2599 -3439 0
-2600 -3440 0
-2601 -3441 0
-2602 -3442 0
-2603 -3443 0
-2604 -3444 0
-2605 -3445 0
-2606 -3446 0
-2607 -3447 0
-2608 -3448 0
-2609 -3449 0
-2610 -3450 0
-2611 -3451 0
-2612 -3452 0
-2613 -3453 0
-2614 -3454 0
-2615 -3455 0
-2616 -3456 0
-2617 -3457 0
-2618 -3458 0
-2619 -3459 0
-2620 -3460 0
-2621 -3461 0
-2622 -3462 0
-2623 -3463 0
-2624 -3464 0
-2625 -3465 0
-2626 -3466 0
-2627 -3467 0
-2628 -3468 0
-2629 -3469 0
-2630 -3470 0
-2631 -3471 0
-2632 -3472 0
-2633 -3473 0
-2634 -3474 0
-2635 -3475 0
-2636 -3476 0
-2637 -3477 0
-2638 -3478 0
-2639 -3479 0
-2640 -3480 0
-2581 -3481 0
-2582 -3482 0
-2583 -3483 0
-2584 -3484 0
-2585 -3485 0
-2586 -3486 0
-2587 -3487 0
-2588 -3488 0
-2589 -3489 0
-2590 -3490 0
-2591 -3491 0
-2592 -3492 0
-2593 -3493 0
-2594 -3494 0
-2595 -3495 0
-2596 -3496 0
-2597 -3497 0
-2598 -3498 0
-2599 -3499 0
-2600 -3500 0
-2601 -3501 0
-2602 -3502 0
-2603 -3503 0
-2604 -3504 0
-2605 -3505 0
-2606 -3506 0
-2607 -3507 0
-2608 -3508 0
-2609 -3509 0
-2610 -3510 0
-2611 -3511 0
-2612 -3512 0
-2613 -3513 0
-2614 -3514 0
-2615 -3515 0
-2616 -3516 0
-2617 -3517 0
-2618 -3518 0
-2619 -3519 0
-2620 -3520 0
-2621 -3521 0
-2622 -3522 0
-2623 -3523 0
-2624 -3524 0
-2625 -3525 0
-2626 -3526 0
-2627 -3527 0
-2628 -3528 0
-2629 -3529 0
-2630 -3530 0
-2631 -3531 0
-2632 -3532 0
-2633 -3533 0
-2634 -3534 0
-2635 -3535 0
-2636 -3536 0
-2637 -3537 0
-2638 -3538 0
-2639 -3539 0
-2640 -3540 0
-2581 -4381 0
-2582 -4382 0
-2583 -4383 0
-2584 -4384 0
-2585 -4385 0
-2586 -4386 0
-2587 -4387 0
-2588 -4388 0
-2589 -4389 0
-2590 -4390 0
-2591 -4391 0
-2592 -4392 0
-2593 -4393 0
-2594 -4394 0
-2595 -4395 0
-2596 -4396 0
-2597 -4397 0
-2598 -4398 0
-2599 -4399 0
-2600 -4400 0
-2601 -4401 0
-2602 -4402 0
-2603 -4403 0
-2604 -4404 0
-2605 -4405 0
-2606 -4406 0
-2607 -4407 0
-2608 -4408 0
-2609 -4409 0
-2610 -4410 0
-2611 -4411 0
-2612 -4412 0
-2613 -4413 0
-2614 -4414 0
-2615 -4415 0
-2616 -4416 0
-2617 -4417 0
-2618 -4418 0
-2619 -4419 0
-2620 -4420 0
-2621 -4421 0
-2622 -4422 0
-2623 -4423 0
-2624 -4424 0
-2625 -4425 0
-2626 -4426 0
-2627 -4427 0
-2628 -4428 0
-2629 -4429 0
-2630 -4430 0
-2631 -4431 0
-2632 -4432 0
-2633 -4433 0
-2634 -4434 0
-2635 -4435 0
-2636 -4436 0
-2637 -4437 0
-2638 -4438 0
-2639 -4439 0
-2640 -4440 0
-2641 -1681 0
-2642 -1682 0
-2643 -1683 0
-2644 -1684 0
-2645 -1685 0
-2646 -1686 0
-2647 -1687 0
-2648 -1688 0
-2649 -1689 0
-2650 -1690 0
-2651 -1691 0
-2652 -1692 0
-2653 -1693 0
-2654 -1694 0
-2655 -1695 0
-2656 -1696 0
-2657 -1697 0
-2658 -1698 0
-2659 -1699 0
-2660 -1700 0
-2661 -1701 0
-2662 -1702 0
-2663 -1703 0
-2664 -1704 0
-2665 -1705 0
-2666 -1706 0
-2667 -1707 0
-2668 -1708 0
-2669 -1709 0
-2670 -1710 0
-2671 -1711 0
-2672 -1712 0
-2673 -1713 0
-2674 -1714 0
-2675 -1715 0
-2676 -1716 0
-2677 -1717 0
-2678 -1718 0
-2679 -1719 0
-2680 -1720 0
-2681 -1721 0
-2682 -1722 0
-2683 -1723 0
-2684 -1724 0
-2685 -1725 0
-2686 -1726 0
-2687 -1727 0
-2688 -1728 0
-2689 -1729 0
-2690 -1730 0
-2691 -1731 0
-2692 -1732 0
-2693 -1733 0
-2694 -1734 0
-2695 -1735 0
-2696 -1736 0
-2697 -1737 0
-2698 -1738 0
-2699 -1739 0
-2700 -1740 0
-2641 -4501 0
-2642 -4502 0
-2643 -4503 0
-2644 -4504 0
-2645 -4505 0
-2646 -4506 0
-2647 -4507 0
-2648 -4508 0
-2649 -4509 0
-2650 -4510 0
-2651 -4511 0
-2652 -4512 0
-2653 -4513 0
-2654 -4514 0
-2655 -4515 0
-2656 -4516 0
-2657 -4517 0
-2658 -4518 0
-2659 -4519 0
-2660 -4520 0
-2661 -4521 0
-2662 -4522 0
-2663 -4523 0
-2664 -4524 0
-2665 -4525 0
-2666 -4526 0
-2667 -4527 0
-2668 -4528 0
-2669 -4529 0
-2670 -4530 0
-2671 -4531 0
-2672 -4532 0
-2673 -4533 0
-2674 -4534 0
-2675 -4535 0
-2676 -4536 0
-2677 -4537 0
-2678 -4538 0
-2679 -4539 0
-2680 -4540 0
-2681 -4541 0
-2682 -4542 0
-2683 -4543 0
-2684 -4544 0
-2685 -4545 0
-2686 -4546 0
-2687 -4547 0
-2688 -4548 0
-2689 -4549 0
-2690 -4550 0
-2691 -4551 0
-2692 -4552 0
-2693 -4553 0
-2694 -4554 0
-2695 -4555 0
-2696 -4556 0
-2697 -4557 0
-2698 -4558 0
-2699 -4559 0
-2700 -4560 0
-2701 -121 0
-2702 -122 0
-2703 -123 0
-2704 -124 0
-2705 -125 0
-2706 -126 0
-2707 -127 0
-2708 -128 0
-2709 -129 0
-2710 -130 0
-2711 -131 0
-2712 -132 0
-2713 -133 0
-2714 -134 0
-2715 -135 0
-2716 -136 0
-2717 -137 0
-2718 -138 0
-2719 -139 0
-2720 -140 0
-2721 -141 0
-2722 -142 0
-2723 -143 0
-2724 -144 0
-2725 -145 0
-2726 -146 0
-2727 -147 0
-2728 -148 0
-2729 -149 0
-2730 -150 0
-2731 -151 0
-2732 -152 0
-2733 -153 0
-2734 -154 0
-2735 -155 0
-2736 -156 0
-2737 -157 0
-2738 -158 0
-2739 -159 0
-2740 -160 0
-2741 -161 0
-2742 -162 0
-2743 -163 0
-2744 -164 0
-2745 -165 0
-2746 -166 0
-2747 -167 0
-2748 -168 0
-2749 -169 0
-2750 -170 0
-2751 -171 0
-2752 -172 0
-2753 -173 0
-2754 -174 0
-2755 -175 0
-2756 -176 0
-2757 -177 0
-2758 -178 0
-2759 -179 0
-2760 -180 0
-2701 -1621 0
-2702 -1622 0
-2703 -1623 0
-2704 -1624 0
-2705 -1625 0
-2706 -1626 0
-2707 -1627 0
-2708 -1628 0
-2709 -1629 0
-2710 -1630 0
-2711 -1631 0
-2712 -1632 0
-2713 -1633 0
-2714 -1634 0
-2715 -1635 0
-2716 -1636 0
-2717 -1637 0
-2718 -1638 0
-2719 -1639 0
-2720 -1640 0
-2721 -1641 0
-2722 -1642 0
-2723 -1643 0
-2724 -1644 0
-2725 -1645 0
-2726 -1646 0
-2727 -1647 0
-2728 -1648 0
-2729 -1649 0
-2730 -1650 0
-2731 -1651 0
-2732 -1652 0
-2733 -1653 0
-2734 -1654 0
-2735 -1655 0
-2736 -1656 0
-2737 -1657 0
-2738 -1658 0
-2739 -1659 0
-2740 -1660 0
-2741 -1661 0
-2742 -1662 0
-2743 -1663 0
-2744 -1664 0
-2745 -1665 0
-2746 -1666 0
-2747 -1667 0
-2748 -1668 0
-2749 -1669 0
-2750 -1670 0
-2751 -1671 0
-2752 -1672 0
-2753 -1673 0
-2754 -1674 0
-2755 -1675 0
-2756 -1676 0
-2757 -1677 0
-2758 -1678 0
-2759 -1679 0
-2760 -1680 0
-2701 -2161 0
-2702 -2162 0
-2703 -2163 0
-2704 -2164 0
-2705 -2165 0
-2706 -2166 0
-2707 -2167 0
-2708 -2168 0
-2709 -2169 0
-2710 -2170 0
-2711 -2171 0
-2712 -2172 0
-2713 -2173 0
-2714 -2174 0
-2715 -2175 0
-2716 -2176 0
-2717 -2177 0
-2718 -2178 0
-2719 -2179 0
-2720 -2180 0
-2721 -2181 0
-2722 -2182 0
-2723 -2183 0
-2724 -2184 0
-2725 -2185 0
-2726 -2186 0
-2727 -2187 0
-2728 -2188 0
-2729 -2189 0
-2730 -2190 0
-2731 -2191 0
-2732 -2192 0
-2733 -2193 0
-2734 -2194 0
-2735 -2195 0
-2736 -2196 0
-2737 -2197 0
-2738 -2198 0
-2739 -2199 0
-2740 -2200 0
-2741 -2201 0
-2742 -2202 0
-2743 -2203 0
-2744 -2204 0
-2745 -2205 0
-2746 -2206 0
-2747 -2207 0
-2748 -2208 0
-2749 -2209 0
-2750 -2210 0
-2751 -2211 0
-2752 -2212 0
-2753 -2213 0
-2754 -2214 0
-2755 -2215 0
-2756 -2216 0
-2757 -2217 0
-2758 -2218 0
-2759 -2219 0
-2760 -2220 0
-2701 -3181 0
-2702 -3182 0
-2703 -3183 0
-2704 -3184 0
-2705 -3185 0
-2706 -3186 0
-2707 -3187 0
-2708 -3188 0
-2709 -3189 0
-2710 -3190 0
-2711 -3191 0
-2712 -3192 0
-2713 -3193 0
-2714 -3194 0
-2715 -3195 0
-2716 -3196 0
-2717 -3197 0
-2718 -3198 0
-2719 -3199 0
-2720 -3200 0
-2721 -3201 0
-2722 -3202 0
-2723 -3203 0
-2724 -3204 0
-2725 -3205 0
-2726 -3206 0
-2727 -3207 0
-2728 -3208 0
-2729 -3209 0
-2730 -3210 0
-2731 -3211 0
-2732 -3212 0
-2733 -3213 0
-2734 -3214 0
-2735 -3215 0
-2736 -3216 0
-2737 -3217 0
-2738 -3218 0
-2739 -3219 0
-2740 -3220 0
-2741 -3221 0
-2742 -3222 0
-2743 -3223 0
-2744 -3224 0
-2745 -3225 0
-2746 -3226 0
-2747 -3227 0
-2748 -3228 0
-2749 -3229 0
-2750 -3230 0
-2751 -3231 0
-2752 -3232 0
-2753 -3233 0
-2754 -3234 0
-2755 -3235 0
-2756 -3236 0
-2757 -3237 0
-2758 -3238 0
-2759 -3239 0
-2760 -3240 0
-2761 -181 0
-2762 -182 0
-2763 -183 0
-2764 -184 0
-2765 -185 0
-2766 -186 0
-2767 -187 0
-2768 -188 0
-2769 -189 0
-2770 -190 0
-2771 -191 0
-2772 -192 0
-2773 -193 0
-2774 -194 0
-2775 -195 0
-2776 -196 0
-2777 -197 0
-2778 -198 0
-2779 -199 0
-2780 -200 0
-2781 -201 0
-2782 -202 0
-2783 -203 0
-2784 -204 0
-2785 -205 0
-2786 -206 0
-2787 -207 0
-2788 -208 0
-2789 -209 0
-2790 -210 0
-2791 -211 0
-2792 -212 0
-2793 -213 0
-2794 -214 0
-2795 -215 0
-2796 -216 0
-2797 -217 0
-2798 -218 0
-2799 -219 0
-2800 -220 0
-2801 -221 0
-2802 -222 0
-2803 -223 0
-2804 -224 0
-2805 -225 0
-2806 -226 0
-2807 -227 0
-2808 -228 0
-2809 -229 0
-2810 -230 0
-2811 -231 0
-2812 -232 0
-2813 -233 0
-2814 -234 0
-2815 -235 0
-2816 -236 0
-2817 -237 0
-2818 -238 0
-2819 -239 0
-2820 -240 0
-2761 -361 0
-2762 -362 0
-2763 -363 0
-2764 -364 0
-2765 -365 0
-2766 -366 0
-2767 -367 0
-2768 -368 0
-2769 -369 0
-2770 -370 0
-2771 -371 0
-2772 -372 0
-2773 -373 0
-2774 -374 0
-2775 -375 0
-2776 -376 0
-2777 -377 0
-2778 -378 0
-2779 -379 0
-2780 -380 0
-2781 -381 0
-2782 -382 0
-2783 -383 0
-2784 -384 0
-2785 -385 0
-2786 -386 0
-2787 -387 0
-2788 -388 0
-2789 -389 0
-2790 -390 0
-2791 -391 0
-2792 -392 0
-2793 -393 0
-2794 -394 0
-2795 -395 0
-2796 -396 0
-2797 -397 0
-2798 -398 0
-2799 -399 0
-2800 -400 0
-2801 -401 0
-2802 -402 0
-2803 -403 0
-2804 -404 0
-2805 -405 0
-2806 -406 0
-2807 -407 0
-2808 -408 0
-2809 -409 0
-2810 -410 0
-2811 -411 0
-2812 -412 0
-2813 -413 0
-2814 -414 0
-2815 -415 0
-2816 -416 0
-2817 -417 0
-2818 -418 0
-2819 -419 0
-2820 -420 0
-2761 -481 0
-2762 -482 0
-2763 -483 0
-2764 -484 0
-2765 -485 0
-2766 -486 0
-2767 -487 0
-2768 -488 0
-2769 -489 0
-2770 -490 0
-2771 -491 0
-2772 -492 0
-2773 -493 0
-2774 -494 0
-2775 -495 0
-2776 -496 0
-2777 -497 0
-2778 -498 0
-2779 -499 0
-2780 -500 0
-2781 -501 0
-2782 -502 0
-2783 -503 0
-2784 -504 0
-2785 -505 0
-2786 -506 0
-2787 -507 0
-2788 -508 0
-2789 -509 0
-2790 -510 0
-2791 -511 0
-2792 -512 0
-2793 -513 0
-2794 -514 0
-2795 -515 0
-2796 -516 0
-2797 -517 0
-2798 -518 0
-2799 -519 0
-2800 -520 0
-2801 -521 0
-2802 -522 0
-2803 -523 0
-2804 -524 0
-2805 -525 0
-2806 -526 0
-2807 -527 0
-2808 -528 0
-2809 -529 0
-2810 -530 0
-2811 -531 0
-2812 -532 0
-2813 -533 0
-2814 -534 0
-2815 -535 0
-2816 -536 0
-2817 -537 0
-2818 -538 0
-2819 -539 0
-2820 -540 0
-2761 -1081 0
-2762 -1082 0
-2763 -1083 0
-2764 -1084 0
-2765 -1085 0
-2766 -1086 0
-2767 -1087 0
-2768 -1088 0
-2769 -1089 0
-2770 -1090 0
-2771 -1091 0
-2772 -1092 0
-2773 -1093 0
-2774 -1094 0
-2775 -1095 0
-2776 -1096 0
-2777 -1097 0
-2778 -1098 0
-2779 -1099 0
-2780 -1100 0
-2781 -1101 0
-2782 -1102 0
-2783 -1103 0
-2784 -1104 0
-2785 -1105 0
-2786 -1106 0
-2787 -1107 0
-2788 -1108 0
-2789 -1109 0
-2790 -1110 0
-2791 -1111 0
-2792 -1112 0
-2793 -1113 0
-2794 -1114 0
-2795 -1115 0
-2796 -1116 0
-2797 -1117 0
-2798 -1118 0
-2799 -1119 0
-2800 -1120 0
-2801 -1121 0
-2802 -1122 0
-2803 -1123 0
-2804 -1124 0
-2805 -1125 0
-2806 -1126 0
-2807 -1127 0
-2808 -1128 0
-2809 -1129 0
-2810 -1130 0
-2811 -1131 0
-2812 -1132 0
-2813 -1133 0
-2814 -1134 0
-2815 -1135 0
-2816 -1136 0
-2817 -1137 0
-2818 -1138 0
-2819 -1139 0
-2820 -1140 0
-2761 -1981 0
-2762 -1982 0
-2763 -1983 0
-2764 -1984 0
-2765 -1985 0
-2766 -1986 0
-2767 -1987 0
-2768 -1988 0
-2769 -1989 0
-2770 -1990 0
-2771 -1991 0
-2772 -1992 0
-2773 -1993 0
-2774 -1994 0
-2775 -1995 0
-2776 -1996 0
-2777 -1997 0
-2778 -1998 0
-2779 -1999 0
-2780 -2000 0
-2781 -2001 0
-2782 -2002 0
-2783 -2003 0
-2784 -2004 0
-2785 -2005 0
-2786 -2006 0
-2787 -2007 0
-2788 -2008 0
-2789 -2009 0
-2790 -2010 0
-2791 -2011 0
-2792 -2012 0
-2793 -2013 0
-2794 -2014 0
-2795 -2015 0
-2796 -2016 0
-2797 -2017 0
-2798 -2018 0
-2799 -2019 0
-2800 -2020 0
-2801 -2021 0
-2802 -2022 0
-2803 -2023 0
-2804 -2024 0
-2805 -2025 0
-2806 -2026 0
-2807 -2027 0
-2808 -2028 0
-2809 -2029 0
-2810 -2030 0
-2811 -2031 0
-2812 -2032 0
-2813 -2033 0
-2814 -2034 0
-2815 -2035 0
-2816 -2036 0
-2817 -2037 0
-2818 -2038 0
-2819 -2039 0
-2820 -2040 0
-2761 -3901 0
-2762 -3902 0
-2763 -3903 0
-2764 -3904 0
-2765 -3905 0
-2766 -3906 0
-2767 -3907 0
-2768 -3908 0
-2769 -3909 0
-2770 -3910 0
-2771 -3911 0
-2772 -3912 0
-2773 -3913 0
-2774 -3914 0
-2775 -3915 0
-2776 -3916 0
-2777 -3917 0
-2778 -3918 0
-2779 -3919 0
-2780 -3920 0
-2781 -3921 0
-2782 -3922 0
-2783 -3923 0
-2784 -3924 0
-2785 -3925 0
-2786 -3926 0
-2787 -3927 0
-2788 -3928 0
-2789 -3929 0
-2790 -3930 0
-2791 -3931 0
-2792 -3932 0
-2793 -3933 0
-2794 -3934 0
-2795 -3935 0
-2796 -3936 0
-2797 -3937 0
-2798 -3938 0
-2799 -3939 0
-2800 -3940 0
-2801 -3941 0
-2802 -3942 0
-2803 -3943 0
-2804 -3944 0
-2805 -3945 0
-2806 -3946 0
-2807 -3947 0
-2808 -3948 0
-2809 -3949 0
-2810 -3950 0
-2811 -3951 0
-2812 -3952 0
-2813 -3953 0
-2814 -3954 0
-2815 -3955 0
-2816 -3956 0
-2817 -3957 0
-2818 -3958 0
-2819 -3959 0
-2820 -3960 0
-2761 -4261 0
-2762 -4262 0
-2763 -4263 0
-2764 -4264 0
-2765 -4265 0
-2766 -4266 0
-2767 -4267 0
-2768 -4268 0
-2769 -4269 0
-2770 -4270 0
-2771 -4271 0
-2772 -4272 0
-2773 -4273 0
-2774 -4274 0
-2775 -4275 0
-2776 -4276 0
-2777 -4277 0
-2778 -4278 0
-2779 -4279 0
-2780 -4280 0
-2781 -4281 0
-2782 -4282 0
-2783 -4283 0
-2784 -4284 0
-2785 -4285 0
-2786 -4286 0
-2787 -4287 0
-2788 -4288 0
-2789 -4289 0
-2790 -4290 0
-2791 -4291 0
-2792 -4292 0
-2793 -4293 0
-2794 -4294 0
-2795 -4295 0
-2796 -4296 0
-2797 -4297 0
-2798 -4298 0
-2799 -4299 0
-2800 -4300 0
-2801 -4301 0
-2802 -4302 0
-2803 -4303 0
-2804 -4304 0
-2805 -4305 0
-2806 -4306 0
-2807 -4307 0
-2808 -4308 0
-2809 -4309 0
-2810 -4310 0
-2811 -4311 0
-2812 -4312 0
-2813 -4313 0
-2814 -4314 0
-2815 -4315 0
-2816 -4316 0
-2817 -4317 0
-2818 -4318 0
-2819 -4319 0
-2820 -4320 0
-2821 -301 0
-2822 -302 0
-2823 -303 0
-2824 -304 0
-2825 -305 0
-2826 -306 0
-2827 -307 0
-2828 -308 0
-2829 -309 0
-2830 -310 0
-2831 -311 0
-2832 -312 0
-2833 -313 0
-2834 -314 0
-2835 -315 0
-2836 -316 0
-2837 -317 0
-2838 -318 0
-2839 -319 0
-2840 -320 0
-2841 -321 0
-2842 -322 0
-2843 -323 0
-2844 -324 0
-2845 -325 0
-2846 -326 0
-2847 -327 0
-2848 -328 0
-2849 -329 0
-2850 -330 0
-2851 -331 0
-2852 -332 0
-2853 -333 0
-2854 -334 0
-2855 -335 0
-2856 -336 0
-2857 -337 0
-2858 -338 0
-2859 -339 0
-2860 -340 0
-2861 -341 0
-2862 -342 0
-2863 -343 0
-2864 -344 0
-2865 -345 0
-2866 -346 0
-2867 -347 0
-2868 -348 0
-2869 -349 0
-2870 -350 0
-2871 -351 0
-2872 -352 0
-2873 -353 0
-2874 -354 0
-2875 -355 0
-2876 -356 0
-2877 -357 0
-2878 -358 0
-2879 -359 0
-2880 -360 0
-2821 -841 0
-2822 -842 0
-2823 -843 0
-2824 -844 0
-2825 -845 0
-2826 -846 0
-2827 -847 0
-2828 -848 0
-2829 -849 0
-2830 -850 0
-2831 -851 0
-2832 -852 0
-2833 -853 0
-2834 -854 0
-2835 -855 0
-2836 -856 0
-2837 -857 0
-2838 -858 0
-2839 -859 0
-2840 -860 0
-2841 -861 0
-2842 -862 0
-2843 -863 0
-2844 -864 0
-2845 -865 0
-2846 -866 0
-2847 -867 0
-2848 -868 0
-2849 -869 0
-2850 -870 0
-2851 -871 0
-2852 -872 0
-2853 -873 0
-2854 -874 0
-2855 -875 0
-2856 -876 0
-2857 -877 0
-2858 -878 0
-2859 -879 0
-2860 -880 0
-2861 -881 0
-2862 -882 0
-2863 -883 0
-2864 -884 0
-2865 -885 0
-2866 -886 0
-2867 -887 0
-2868 -888 0
-2869 -889 0
-2870 -890 0
-2871 -891 0
-2872 -892 0
-2873 -893 0
-2874 -894 0
-2875 -895 0
-2876 -896 0
-2877 -897 0
-2878 -898 0
-2879 -899 0
-2880 -900 0
-2821 -901 0
-2822 -902 0
-2823 -903 0
-2824 -904 0
-2825 -905 0
-2826 -906 0
-2827 -907 0
-2828 -908 0
-2829 -909 0
-2830 -910 0
-2831 -911 0
-2832 -912 0
-2833 -913 0
-2834 -914 0
-2835 -915 0
-2836 -916 0
-2837 -917 0
-2838 -918 0
-2839 -919 0
-2840 -920 0
-2841 -921 0
-2842 -922 0
-2843 -923 0
-2844 -924 0
-2845 -925 0
-2846 -926 0
-2847 -927 0
-2848 -928 0
-2849 -929 0
-2850 -930 0
-2851 -931 0
-2852 -932 0
-2853 -933 0
-2854 -934 0
-2855 -935 0
-2856 -936 0
-2857 -937 0
-2858 -938 0
-2859 -939 0
-2860 -940 0
-2861 -941 0
-2862 -942 0
-2863 -943 0
-2864 -944 0
-2865 -945 0
-2866 -946 0
-2867 -947 0
-2868 -948 0
-2869 -949 0
-2870 -950 0
-2871 -951 0
-2872 -952 0
-2873 -953 0
-2874 -954 0
-2875 -955 0
-2876 -956 0
-2877 -957 0
-2878 -958 0
-2879 -959 0
-2880 -960 0
-2821 -1021 0
-2822 -1022 0
-2823 -1023 0
-2824 -1024 0
-2825 -1025 0
-2826 -1026 0
-2827 -1027 0
-2828 -1028 0
-2829 -1029 0
-2830 -1030 0
-2831 -1031 0
-2832 -1032 0
-2833 -1033 0
-2834 -1034 0
-2835 -1035 0
-2836 -1036 0
-2837 -1037 0
-2838 -1038 0
-2839 -1039 0
-2840 -1040 0
-2841 -1041 0
-2842 -1042 0
-2843 -1043 0
-2844 -1044 0
-2845 -1045 0
-2846 -1046 0
-2847 -1047 0
-2848 -1048 0
-2849 -1049 0
-2850 -1050 0
-2851 -1051 0
-2852 -1052 0
-2853 -1053 0
-2854 -1054 0
-2855 -1055 0
-2856 -1056 0
-2857 -1057 0
-2858 -1058 0
-2859 -1059 0
-2860 -1060 0
-2861 -1061 0
-2862 -1062 0
-2863 -1063 0
-2864 -1064 0
-2865 -1065 0
-2866 -1066 0
-2867 -1067 0
-2868 -1068 0
-2869 -1069 0
-2870 -1070 0
-2871 -1071 0
-2872 -1072 0
-2873 -1073 0
-2874 -1074 0
-2875 -1075 0
-2876 -1076 0
-2877 -1077 0
-2878 -1078 0
-2879 -1079 0
-2880 -1080 0
-2821 -1981 0
-2822 -1982 0
-2823 -1983 0
-2824 -1984 0
-2825 -1985 0
-2826 -1986 0
-2827 -1987 0
-2828 -1988 0
-2829 -1989 0
-2830 -1990 0
-2831 -1991 0
-2832 -1992 0
-2833 -1993 0
-2834 -1994 0
-2835 -1995 0
-2836 -1996 0
-2837 -1997 0
-2838 -1998 0
-2839 -1999 0
-2840 -2000 0
-2841 -2001 0
-2842 -2002 0
-2843 -2003 0
-2844 -2004 0
-2845 -2005 0
-2846 -2006 0
-2847 -2007 0
-2848 -2008 0
-2849 -2009 0
-2850 -2010 0
-2851 -2011 0
-2852 -2012 0
-2853 -2013 0
-2854 -2014 0
-2855 -2015 0
-2856 -2016 0
-2857 -2017 0
-2858 -2018 0
-2859 -2019 0
-2860 -2020 0
-2861 -2021 0
-2862 -2022 0
-2863 -2023 0
-2864 -2024 0
-2865 -2025 0
-2866 -2026 0
-2867 -2027 0
-2868 -2028 0
-2869 -2029 0
-2870 -2030 0
-2871 -2031 0
-2872 -2032 0
-2873 -2033 0
-2874 -2034 0
-2875 -2035 0
-2876 -2036 0
-2877 -2037 0
-2878 -2038 0
-2879 -2039 0
-2880 -2040 0
-2821 -2041 0
-2822 -2042 0
-2823 -2043 0
-2824 -2044 0
-2825 -2045 0
-2826 -2046 0
-2827 -2047 0
-2828 -2048 0
-2829 -2049 0
-2830 -2050 0
-2831 -2051 0
-2832 -2052 0
-2833 -2053 0
-2834 -2054 0
-2835 -2055 0
-2836 -2056 0
-2837 -2057 0
-2838 -2058 0
-2839 -2059 0
-2840 -2060 0
-2841 -2061 0
-2842 -2062 0
-2843 -2063 0
-2844 -2064 0
-2845 -2065 0
-2846 -2066 0
-2847 -2067 0
-2848 -2068 0
-2849 -2069 0
-2850 -2070 0
-2851 -2071 0
-2852 -2072 0
-2853 -2073 0
-2854 -2074 0
-2855 -2075 0
-2856 -2076 0
-2857 -2077 0
-2858 -2078 0
-2859 -2079 0
-2860 -2080 0
-2861 -2081 0
-2862 -2082 0
-2863 -2083 0
-2864 -2084 0
-2865 -2085 0
-2866 -2086 0
-2867 -2087 0
-2868 -2088 0
-2869 -2089 0
-2870 -2090 0
-2871 -2091 0
-2872 -2092 0
-2873 -2093 0
-2874 -2094 0
-2875 -2095 0
-2876 -2096 0
-2877 -2097 0
-2878 -2098 0
-2879 -2099 0
-2880 -2100 0
-2821 -2221 0
-2822 -2222 0
-2823 -2223 0
-2824 -2224 0
-2825 -2225 0
-2826 -2226 0
-2827 -2227 0
-2828 -2228 0
-2829 -2229 0
-2830 -2230 0
-2831 -2231 0
-2832 -2232 0
-2833 -2233 0
-2834 -2234 0
-2835 -2235 0
-2836 -2236 0
-2837 -2237 0
-2838 -2238 0
-2839 -2239 0
-2840 -2240 0
-2841 -2241 0
-2842 -2242 0
-2843 -2243 0
-2844 -2244 0
-2845 -2245 0
-2846 -2246 0
-2847 -2247 0
-2848 -2248 0
-2849 -2249 0
-2850 -2250 0
-2851 -2251 0
-2852 -2252 0
-2853 -2253 0
-2854 -2254 0
-2855 -2255 0
-2856 -2256 0
-2857 -2257 0
-2858 -2258 0
-2859 -2259 0
-2860 -2260 0
-2861 -2261 0
-2862 -2262 0
-2863 -2263 0
-2864 -2264 0
-2865 -2265 0
-2866 -2266 0
-2867 -2267 0
-2868 -2268 0
-2869 -2269 0
-2870 -2270 0
-2871 -2271 0
-2872 -2272 0
-2873 -2273 0
-2874 -2274 0
-2875 -2275 0
-2876 -2276 0
-2877 -2277 0
-2878 -2278 0
-2879 -2279 0
-2880 -2280 0
-2821 -2581 0
-2822 -2582 0
-2823 -2583 0
-2824 -2584 0
-2825 -2585 0
-2826 -2586 0
-2827 -2587 0
-2828 -2588 0
-2829 -2589 0
-2830 -2590 0
-2831 -2591 0
-2832 -2592 0
-2833 -2593 0
-2834 -2594 0
-2835 -2595 0
-2836 -2596 0
-2837 -2597 0
-2838 -2598 0
-2839 -2599 0
-2840 -2600 0
-2841 -2601 0
-2842 -2602 0
-2843 -2603 0
-2844 -2604 0
-2845 -2605 0
-2846 -2606 0
-2847 -2607 0
-2848 -2608 0
-2849 -2609 0
-2850 -2610 0
-2851 -2611 0
-2852 -2612 0
-2853 -2613 0
-2854 -2614 0
-2855 -2615 0
-2856 -2616 0
-2857 -2617 0
-2858 -2618 0
-2859 -2619 0
-2860 -2620 0
-2861 -2621 0
-2862 -2622 0
-2863 -2623 0
-2864 -2624 0
-2865 -2625 0
-2866 -2626 0
-2867 -2627 0
-2868 -2628 0
-2869 -2629 0
-2870 -2630 0
-2871 -2631 0
-2872 -2632 0
-2873 -2633 0
-2874 -2634 0
-2875 -2635 0
-2876 -2636 0
-2877 -2637 0
-2878 -2638 0
-2879 -2639 0
-2880 -2640 0
-2821 -3241 0
-2822 -3242 0
-2823 -3243 0
-2824 -3244 0
-2825 -3245 0
-2826 -3246 0
-2827 -3247 0
-2828 -3248 0
-2829 -3249 0
-2830 -3250 0
-2831 -3251 0
-2832 -3252 0
-2833 -3253 0
-2834 -3254 0
-2835 -3255 0
-2836 -3256 0
-2837 -3257 0
-2838 -3258 0
-2839 -3259 0
-2840 -3260 0
-2841 -3261 0
-2842 -3262 0
-2843 -3263 0
-2844 -3264 0
-2845 -3265 0
-2846 -3266 0
-2847 -3267 0
-2848 -3268 0
-2849 -3269 0
-2850 -3270 0
-2851 -3271 0
-2852 -3272 0
-2853 -3273 0
-2854 -3274 0
-2855 -3275 0
-2856 -3276 0
-2857 -3277 0
-2858 -3278 0
-2859 -3279 0
-2860 -3280 0
-2861 -3281 0
-2862 -3282 0
-2863 -3283 0
-2864 -3284 0
-2865 -3285 0
-2866 -3286 0
-2867 -3287 0
-2868 -3288 0
-2869 -3289 0
-2870 -3290 0
-2871 -3291 0
-2872 -3292 0
-2873 -3293 0
-2874 -3294 0
-2875 -3295 0
-2876 -3296 0
-2877 -3297 0
-2878 -3298 0
-2879 -3299 0
-2880 -3300 0
-2821 -3361 0
-2822 -3362 0
-2823 -3363 0
-2824 -3364 0
-2825 -3365 0
-2826 -3366 0
-2827 -3367 0
-2828 -3368 0
-2829 -3369 0
-2830 -3370 0
-2831 -3371 0
-2832 -3372 0
-2833 -3373 0
-2834 -3374 0
-2835 -3375 0
-2836 -3376 0
-2837 -3377 0
-2838 -3378 0
-2839 -3379 0
-2840 -3380 0
-2841 -3381 0
-2842 -3382 0
-2843 -3383 0
-2844 -3384 0
-2845 -3385 0
-2846 -3386 0
-2847 -3387 0
-2848 -3388 0
-2849 -3389 0
-2850 -3390 0
-2851 -3391 0
-2852 -3392 0
-2853 -3393 0
-2854 -3394 0
-2855 -3395 0
-2856 -3396 0
-2857 -3397 0
-2858 -3398 0
-2859 -3399 0
-2860 -3400 0
-2861 -3401 0
-2862 -3402 0
-2863 -3403 0
-2864 -3404 0
-2865 -3405 0
-2866 -3406 0
-2867 -3407 0
-2868 -3408 0
-2869 -3409 0
-2870 -3410 0
-2871 -3411 0
-2872 -3412 0
-2873 -3413 0
-2874 -3414 0
-2875 -3415 0
-2876 -3416 0
-2877 -3417 0
-2878 -3418 0
-2879 -3419 0
-2880 -3420 0
-2821 -3421 0
-2822 -3422 0
-2823 -3423 0
-2824 -3424 0
-2825 -3425 0
-2826 -3426 0
-2827 -3427 0
-2828 -3428 0
-2829 -3429 0
-2830 -3430 0
-2831 -3431 0
-2832 -3432 0
-2833 -3433 0
-2834 -3434 0
-2835 -3435 0
-2836 -3436 0
-2837 -3437 0
-2838 -3438 0
-2839 -3439 0
-2840 -3440 0
-2841 -3441 0
-2842 -3442 0
-2843 -3443 0
-2844 -3444 0
-2845 -3445 0
-2846 -3446 0
-2847 -3447 0
-2848 -3448 0
-2849 -3449 0
-2850 -3450 0
-2851 -3451 0
-2852 -3452 0
-2853 -3453 0
-2854 -3454 0
-2855 -3455 0
-2856 -3456 0
-2857 -3457 0
-2858 -3458 0
-2859 -3459 0
-2860 -3460 0
-2861 -3461 0
-2862 -3462 0
-2863 -3463 0
-2864 -3464 0
-2865 -3465 0
-2866 -3466 0
-2867 -3467 0
-2868 -3468 0
-2869 -3469 0
-2870 -3470 0
-2871 -3471 0
-2872 -3472 0
-2873 -3473 0
-2874 -3474 0
-2875 -3475 0
-2876 -3476 0
-2877 -3477 0
-2878 -3478 0
-2879 -3479 0
-2880 -3480 0
-2941 -181 0
-2942 -182 0
-2943 -183 0
-2944 -184 0
-2945 -185 0
-2946 -186 0
-2947 -187 0
-2948 -188 0
-2949 -189 0
-2950 -190 0
-2951 -191 0
-2952 -192 0
-2953 -193 0
-2954 -194 0
-2955 -195 0
-2956 -196 0
-2957 -197 0
-2958 -198 0
-2959 -199 0
-2960 -200 0
-2961 -201 0
-2962 -202 0
-2963 -203 0
-2964 -204 0
-2965 -205 0
-2966 -206 0
-2967 -207 0
-2968 -208 0
-2969 -209 0
-2970 -210 0
-2971 -211 0
-2972 -212 0
-2973 -213 0
-2974 -214 0
-2975 -215 0
-2976 -216 0
-2977 -217 0
-2978 -218 0
-2979 -219 0
-2980 -220 0
-2981 -221 0
-2982 -222 0
-2983 -223 0
-2984 -224 0
-2985 -225 0
-2986 -226 0
-2987 -227 0
-2988 -228 0
-2989 -229 0
-2990 -230 0
-2991 -231 0
-2992 -232 0
-2993 -233 0
-2994 -234 0
-2995 -235 0
-2996 -236 0
-2997 -237 0
-2998 -238 0
-2999 -239 0
-3000 -240 0
-2941 -361 0
-2942 -362 0
-2943 -363 0
-2944 -364 0
-2945 -365 0
-2946 -366 0
-2947 -367 0
-2948 -368 0
-2949 -369 0
-2950 -370 0
-2951 -371 0
-2952 -372 0
-2953 -373 0
-2954 -374 0
-2955 -375 0
-2956 -376 0
-2957 -377 0
-2958 -378 0
-2959 -379 0
-2960 -380 0
-2961 -381 0
-2962 -382 0
-2963 -383 0
-2964 -384 0
-2965 -385 0
-2966 -386 0
-2967 -387 0
-2968 -388 0
-2969 -389 0
-2970 -390 0
-2971 -391 0
-2972 -392 0
-2973 -393 0
-2974 -394 0
-2975 -395 0
-2976 -396 0
-2977 -397 0
-2978 -398 0
-2979 -399 0
-2980 -400 0
-2981 -401 0
-2982 -402 0
-2983 -403 0
-2984 -404 0
-2985 -405 0
-2986 -406 0
-2987 -407 0
-2988 -408 0
-2989 -409 0
-2990 -410 0
-2991 -411 0
-2992 -412 0
-2993 -413 0
-2994 -414 0
-2995 -415 0
-2996 -416 0
-2997 -417 0
-2998 -418 0
-2999 -419 0
-3000 -420 0
-2941 -481 0
-2942 -482 0
-2943 -483 0
-2944 -484 0
-2945 -485 0
-2946 -486 0
-2947 -487 0
-2948 -488 0
-2949 -489 0
-2950 -490 0
-2951 -491 0
-2952 -492 0
-2953 -493 0
-2954 -494 0
-2955 -495 0
-2956 -496 0
-2957 -497 0
-2958 -498 0
-2959 -499 0
-2960 -500 0
-2961 -501 0
-2962 -502 0
-2963 -503 0
-2964 -504 0
-2965 -505 0
-2966 -506 0
-2967 -507 0
-2968 -508 0
-2969 -509 0
-2970 -510 0
-2971 -511 0
-2972 -512 0
-2973 -513 0
-2974 -514 0
-2975 -515 0
-2976 -516 0
-2977 -517 0
-2978 -518 0
-2979 -519 0
-2980 -520 0
-2981 -521 0
-2982 -522 0
-2983 -523 0
-2984 -524 0
-2985 -525 0
-2986 -526 0
-2987 -527 0
-2988 -528 0
-2989 -529 0
-2990 -530 0
-2991 -531 0
-2992 -532 0
-2993 -533 0
-2994 -534 0
-2995 -535 0
-2996 -536 0
-2997 -537 0
-2998 -538 0
-2999 -539 0
-3000 -540 0
-2941 -1081 0
-2942 -1082 0
-2943 -1083 0
-2944 -1084 0
-2945 -1085 0
-2946 -1086 0
-2947 -1087 0
-2948 -1088 0
-2949 -1089 0
-2950 -1090 0
-2951 -1091 0
-2952 -1092 0
-2953 -1093 0
-2954 -1094 0
-2955 -1095 0
-2956 -1096 0
-2957 -1097 0
-2958 -1098 0
-2959 -1099 0
-2960 -1100 0
-2961 -1101 0
-2962 -1102 0
-2963 -1103 0
-2964 -1104 0
-2965 -1105 0
-2966 -1106 0
-2967 -1107 0
-2968 -1108 0
-2969 -1109 0
-2970 -1110 0
-2971 -1111 0
-2972 -1112 0
-2973 -1113 0
-2974 -1114 0
-2975 -1115 0
-2976 -1116 0
-2977 -1117 0
-2978 -1118 0
-2979 -1119 0
-2980 -1120 0
-2981 -1121 0
-2982 -1122 0
-2983 -1123 0
-2984 -1124 0
-2985 -1125 0
-2986 -1126 0
-2987 -1127 0
-2988 -1128 0
-2989 -1129 0
-2990 -1130 0
-2991 -1131 0
-2992 -1132 0
-2993 -1133 0
-2994 -1134 0
-2995 -1135 0
-2996 -1136 0
-2997 -1137 0
-2998 -1138 0
-2999 -1139 0
-3000 -1140 0
-2941 -1981 0
-2942 -1982 0
-2943 -1983 0
-2944 -1984 0
-2945 -1985 0
-2946 -1986 0
-2947 -1987 0
-2948 -1988 0
-2949 -1989 0
-2950 -1990 0
-2951 -1991 0
-2952 -1992 0
-2953 -1993 0
-2954 -1994 0
-2955 -1995 0
-2956 -1996 0
-2957 -1997 0
-2958 -1998 0
-2959 -1999 0
-2960 -2000 0
-2961 -2001 0
-2962 -2002 0
-2963 -2003 0
-2964 -2004 0
-2965 -2005 0
-2966 -2006 0
-2967 -2007 0
-2968 -2008 0
-2969 -2009 0
-2970 -2010 0
-2971 -2011 0
-2972 -2012 0
-2973 -2013 0
-2974 -2014 0
-2975 -2015 0
-2976 -2016 0
-2977 -2017 0
-2978 -2018 0
-2979 -2019 0
-2980 -2020 0
-2981 -2021 0
-2982 -2022 0
-2983 -2023 0
-2984 -2024 0
-2985 -2025 0
-2986 -2026 0
-2987 -2027 0
-2988 -2028 0
-2989 -2029 0
-2990 -2030 0
-2991 -2031 0
-2992 -2032 0
-2993 -2033 0
-2994 -2034 0
-2995 -2035 0
-2996 -2036 0
-2997 -2037 0
-2998 -2038 0
-2999 -2039 0
-3000 -2040 0
-2941 -3901 0
-2942 -3902 0
-2943 -3903 0
-2944 -3904 0
-2945 -3905 0
-2946 -3906 0
-2947 -3907 0
-2948 -3908 0
-2949 -3909 0
-2950 -3910 0
-2951 -3911 0
-2952 -3912 0
-2953 -3913 0
-2954 -3914 0
-2955 -3915 0
-2956 -3916 0
-2957 -3917 0
-2958 -3918 0
-2959 -3919 0
-2960 -3920 0
-2961 -3921 0
-2962 -3922 0
-2963 -3923 0
-2964 -3924 0
-2965 -3925 0
-2966 -3926 0
-2967 -3927 0
-2968 -3928 0
-2969 -3929 0
-2970 -3930 0
-2971 -3931 0
-2972 -3932 0
-2973 -3933 0
-2974 -3934 0
-2975 -3935 0
-2976 -3936 0
-2977 -3937 0
-2978 -3938 0
-2979 -3939 0
-2980 -3940 0
-2981 -3941 0
-2982 -3942 0
-2983 -3943 0
-2984 -3944 0
-2985 -3945 0
-2986 -3946 0
-2987 -3947 0
-2988 -3948 0
-2989 -3949 0
-2990 -3950 0
-2991 -3951 0
-2992 -3952 0
-2993 -3953 0
-2994 -3954 0
-2995 -3955 0
-2996 -3956 0
-2997 -3957 0
-2998 -3958 0
-2999 -3959 0
-3000 -3960 0
-2941 -4021 0
-2942 -4022 0
-2943 -4023 0
-2944 -4024 0
-2945 -4025 0
-2946 -4026 0
-2947 -4027 0
-2948 -4028 0
-2949 -4029 0
-2950 -4030 0
-2951 -4031 0
-2952 -4032 0
-2953 -4033 0
-2954 -4034 0
-2955 -4035 0
-2956 -4036 0
-2957 -4037 0
-2958 -4038 0
-2959 -4039 0
-2960 -4040 0
-2961 -4041 0
-2962 -4042 0
-2963 -4043 0
-2964 -4044 0
-2965 -4045 0
-2966 -4046 0
-2967 -4047 0
-2968 -4048 0
-2969 -4049 0
-2970 -4050 0
-2971 -4051 0
-2972 -4052 0
-2973 -4053 0
-2974 -4054 0
-2975 -4055 0
-2976 -4056 0
-2977 -4057 0
-2978 -4058 0
-2979 -4059 0
-2980 -4060 0
-2981 -4061 0
-2982 -4062 0
-2983 -4063 0
-2984 -4064 0
-2985 -4065 0
-2986 -4066 0
-2987 -4067 0
-2988 -4068 0
-2989 -4069 0
-2990 -4070 0
-2991 -4071 0
-2992 -4072 0
-2993 -4073 0
-2994 -4074 0
-2995 -4075 0
-2996 -4076 0
-2997 -4077 0
-2998 -4078 0
-2999 -4079 0
-3000 -4080 0
-2941 -4261 0
-2942 -4262 0
-2943 -4263 0
-2944 -4264 0
-2945 -4265 0
-2946 -4266 0
-2947 -4267 0
-2948 -4268 0
-2949 -4269 0
-2950 -4270 0
-2951 -4271 0
-2952 -4272 0
-2953 -4273 0
-2954 -4274 0
-2955 -4275 0
-2956 -4276 0
-2957 -4277 0
-2958 -4278 0
-2959 -4279 0
-2960 -4280 0
-2961 -4281 0
-2962 -4282 0
-2963 -4283 0
-2964 -4284 0
-2965 -4285 0
-2966 -4286 0
-2967 -4287 0
-2968 -4288 0
-2969 -4289 0
-2970 -4290 0
-2971 -4291 0
-2972 -4292 0
-2973 -4293 0
-2974 -4294 0
-2975 -4295 0
-2976 -4296 0
-2977 -4297 0
-2978 -4298 0
-2979 -4299 0
-2980 -4300 0
-2981 -4301 0
-2982 -4302 0
-2983 -4303 0
-2984 -4304 0
-2985 -4305 0
-2986 -4306 0
-2987 -4307 0
-2988 -4308 0
-2989 -4309 0
-2990 -4310 0
-2991 -4311 0
-2992 -4312 0
-2993 -4313 0
-2994 -4314 0
-2995 -4315 0
-2996 -4316 0
-2997 -4317 0
-2998 -4318 0
-2999 -4319 0
-3000 -4320 0
-2941 -4681 0
-2942 -4682 0
-2943 -4683 0
-2944 -4684 0
-2945 -4685 0
-2946 -4686 0
-2947 -4687 0
-2948 -4688 0
-2949 -4689 0
-2950 -4690 0
-2951 -4691 0
-2952 -4692 0
-2953 -4693 0
-2954 -4694 0
-2955 -4695 0
-2956 -4696 0
-2957 -4697 0
-2958 -4698 0
-2959 -4699 0
-2960 -4700 0
-2961 -4701 0
-2962 -4702 0
-2963 -4703 0
-2964 -4704 0
-2965 -4705 0
-2966 -4706 0
-2967 -4707 0
-2968 -4708 0
-2969 -4709 0
-2970 -4710 0
-2971 -4711 0
-2972 -4712 0
-2973 -4713 0
-2974 -4714 0
-2975 -4715 0
-2976 -4716 0
-2977 -4717 0
-2978 -4718 0
-2979 -4719 0
-2980 -4720 0
-2981 -4721 0
-2982 -4722 0
-2983 -4723 0
-2984 -4724 0
-2985 -4725 0
-2986 -4726 0
-2987 -4727 0
-2988 -4728 0
-2989 -4729 0
-2990 -4730 0
-2991 -4731 0
-2992 -4732 0
-2993 -4733 0
-2994 -4734 0
-2995 -4735 0
-2996 -4736 0
-2997 -4737 0
-2998 -4738 0
-2999 -4739 0
-3000 -4740 0
-3001 -3361 0
-3002 -3362 0
-3003 -3363 0
-3004 -3364 0
-3005 -3365 0
-3006 -3366 0
-3007 -3367 0
-3008 -3368 0
-3009 -3369 0
-3010 -3370 0
-3011 -3371 0
-3012 -3372 0
-3013 -3373 0
-3014 -3374 0
-3015 -3375 0
-3016 -3376 0
-3017 -3377 0
-3018 -3378 0
-3019 -3379 0
-3020 -3380 0
-3021 -3381 0
-3022 -3382 0
-3023 -3383 0
-3024 -3384 0
-3025 -3385 0
-3026 -3386 0
-3027 -3387 0
-3028 -3388 0
-3029 -3389 0
-3030 -3390 0
-3031 -3391 0
-3032 -3392 0
-3033 -3393 0
-3034 -3394 0
-3035 -3395 0
-3036 -3396 0
-3037 -3397 0
-3038 -3398 0
-3039 -3399 0
-3040 -3400 0
-3041 -3401 0
-3042 -3402 0
-3043 -3403 0
-3044 -3404 0
-3045 -3405 0
-3046 -3406 0
-3047 -3407 0
-3048 -3408 0
-3049 -3409 0
-3050 -3410 0
-3051 -3411 0
-3052 -3412 0
-3053 -3413 0
-3054 -3414 0
-3055 -3415 0
-3056 -3416 0
-3057 -3417 0
-3058 -3418 0
-3059 -3419 0
-3060 -3420 0
-3061 -2221 0
-3062 -2222 0
-3063 -2223 0
-3064 -2224 0
-3065 -2225 0
-3066 -2226 0
-3067 -2227 0
-3068 -2228 0
-3069 -2229 0
-3070 -2230 0
-3071 -2231 0
-3072 -2232 0
-3073 -2233 0
-3074 -2234 0
-3075 -2235 0
-3076 -2236 0
-3077 -2237 0
-3078 -2238 0
-3079 -2239 0
-3080 -2240 0
-3081 -2241 0
-3082 -2242 0
-3083 -2243 0
-3084 -2244 0
-3085 -2245 0
-3086 -2246 0
-3087 -2247 0
-3088 -2248 0
-3089 -2249 0
-3090 -2250 0
-3091 -2251 0
-3092 -2252 0
-3093 -2253 0
-3094 -2254 0
-3095 -2255 0
-3096 -2256 0
-3097 -2257 0
-3098 -2258 0
-3099 -2259 0
-3100 -2260 0
-3101 -2261 0
-3102 -2262 0
-3103 -2263 0
-3104 -2264 0
-3105 -2265 0
-3106 -2266 0
-3107 -2267 0
-3108 -2268 0
-3109 -2269 0
-3110 -2270 0
-3111 -2271 0
-3112 -2272 0
-3113 -2273 0
-3114 -2274 0
-3115 -2275 0
-3116 -2276 0
-3117 -2277 0
-3118 -2278 0
-3119 -2279 0
-3120 -2280 0
-3121 -2161 0
-3122 -2162 0
-3123 -2163 0
-3124 -2164 0
-3125 -2165 0
-3126 -2166 0
-3127 -2167 0
-3128 -2168 0
-3129 -2169 0
-3130 -2170 0
-3131 -2171 0
-3132 -2172 0
-3133 -2173 0
-3134 -2174 0
-3135 -2175 0
-3136 -2176 0
-3137 -2177 0
-3138 -2178 0
-3139 -2179 0
-3140 -2180 0
-3141 -2181 0
-3142 -2182 0
-3143 -2183 0
-3144 -2184 0
-3145 -2185 0
-3146 -2186 0
-3147 -2187 0
-3148 -2188 0
-3149 -2189 0
-3150 -2190 0
-3151 -2191 0
-3152 -2192 0
-3153 -2193 0
-3154 -2194 0
-3155 -2195 0
-3156 -2196 0
-3157 -2197 0
-3158 -2198 0
-3159 -2199 0
-3160 -2200 0
-3161 -2201 0
-3162 -2202 0
-3163 -2203 0
-3164 -2204 0
-3165 -2205 0
-3166 -2206 0
-3167 -2207 0
-3168 -2208 0
-3169 -2209 0
-3170 -2210 0
-3171 -2211 0
-3172 -2212 0
-3173 -2213 0
-3174 -2214 0
-3175 -2215 0
-3176 -2216 0
-3177 -2217 0
-3178 -2218 0
-3179 -2219 0
-3180 -2220 0
-3181 -121 0
-3182 -122 0
-3183 -123 0
-3184 -124 0
-3185 -125 0
-3186 -126 0
-3187 -127 0
-3188 -128 0
-3189 -129 0
-3190 -130 0
-3191 -131 0
-3192 -132 0
-3193 -133 0
-3194 -134 0
-3195 -135 0
-3196 -136 0
-3197 -137 0
-3198 -138 0
-3199 -139 0
-3200 -140 0
-3201 -141 0
-3202 -142 0
-3203 -143 0
-3204 -144 0
-3205 -145 0
-3206 -146 0
-3207 -147 0
-3208 -148 0
-3209 -149 0
-3210 -150 0
-3211 -151 0
-3212 -152 0
-3213 -153 0
-3214 -154 0
-3215 -155 0
-3216 -156 0
-3217 -157 0
-3218 -158 0
-3219 -159 0
-3220 -160 0
-3221 -161 0
-3222 -162 0
-3223 -163 0
-3224 -164 0
-3225 -165 0
-3226 -166 0
-3227 -167 0
-3228 -168 0
-3229 -169 0
-3230 -170 0
-3231 -171 0
-3232 -172 0
-3233 -173 0
-3234 -174 0
-3235 -175 0
-3236 -176 0
-3237 -177 0
-3238 -178 0
-3239 -179 0
-3240 -180 0
-3181 -2701 0
-3182 -2702 0
-3183 -2703 0
-3184 -2704 0
-3185 -2705 0
-3186 -2706 0
-3187 -2707 0
-3188 -2708 0
-3189 -2709 0
-3190 -2710 0
-3191 -2711 0
-3192 -2712 0
-3193 -2713 0
-3194 -2714 0
-3195 -2715 0
-3196 -2716 0
-3197 -2717 0
-3198 -2718 0
-3199 -2719 0
-3200 -2720 0
-3201 -2721 0
-3202 -2722 0
-3203 -2723 0
-3204 -2724 0
-3205 -2725 0
-3206 -2726 0
-3207 -2727 0
-3208 -2728 0
-3209 -2729 0
-3210 -2730 0
-3211 -2731 0
-3212 -2732 0
-3213 -2733 0
-3214 -2734 0
-3215 -2735 0
-3216 -2736 0
-3217 -2737 0
-3218 -2738 0
-3219 -2739 0
-3220 -2740 0
-3221 -2741 0
-3222 -2742 0
-3223 -2743 0
-3224 -2744 0
-3225 -2745 0
-3226 -2746 0
-3227 -2747 0
-3228 -2748 0
-3229 -2749 0
-3230 -2750 0
-3231 -2751 0
-3232 -2752 0
-3233 -2753 0
-3234 -2754 0
-3235 -2755 0
-3236 -2756 0
-3237 -2757 0
-3238 -2758 0
-3239 -2759 0
-3240 -2760 0
-3241 -301 0
-3242 -302 0
-3243 -303 0
-3244 -304 0
-3245 -305 0
-3246 -306 0
-3247 -307 0
-3248 -308 0
-3249 -309 0
-3250 -310 0
-3251 -311 0
-3252 -312 0
-3253 -313 0
-3254 -314 0
-3255 -315 0
-3256 -316 0
-3257 -317 0
-3258 -318 0
-3259 -319 0
-3260 -320 0
-3261 -321 0
-3262 -322 0
-3263 -323 0
-3264 -324 0
-3265 -325 0
-3266 -326 0
-3267 -327 0
-3268 -328 0
-3269 -329 0
-3270 -330 0
-3271 -331 0
-3272 -332 0
-3273 -333 0
-3274 -334 0
-3275 -335 0
-3276 -336 0
-3277 -337 0
-3278 -338 0
-3279 -339 0
-3280 -340 0
-3281 -341 0
-3282 -342 0
-3283 -343 0
-3284 -344 0
-3285 -345 0
-3286 -346 0
-3287 -347 0
-3288 -348 0
-3289 -349 0
-3290 -350 0
-3291 -351 0
-3292 -352 0
-3293 -353 0
-3294 -354 0
-3295 -355 0
-3296 -356 0
-3297 -357 0
-3298 -358 0
-3299 -359 0
-3300 -360 0
-3241 -901 0
-3242 -902 0
-3243 -903 0
-3244 -904 0
-3245 -905 0
-3246 -906 0
-3247 -907 0
-3248 -908 0
-3249 -909 0
-3250 -910 0
-3251 -911 0
-3252 -912 0
-3253 -913 0
-3254 -914 0
-3255 -915 0
-3256 -916 0
-3257 -917 0
-3258 -918 0
-3259 -919 0
-3260 -920 0
-3261 -921 0
-3262 -922 0
-3263 -923 0
-3264 -924 0
-3265 -925 0
-3266 -926 0
-3267 -927 0
-3268 -928 0
-3269 -929 0
-3270 -930 0
-3271 -931 0
-3272 -932 0
-3273 -933 0
-3274 -934 0
-3275 -935 0
-3276 -936 0
-3277 -937 0
-3278 -938 0
-3279 -939 0
-3280 -940 0
-3281 -941 0
-3282 -942 0
-3283 -943 0
-3284 -944 0
-3285 -945 0
-3286 -946 0
-3287 -947 0
-3288 -948 0
-3289 -949 0
-3290 -950 0
-3291 -951 0
-3292 -952 0
-3293 -953 0
-3294 -954 0
-3295 -955 0
-3296 -956 0
-3297 -957 0
-3298 -958 0
-3299 -959 0
-3300 -960 0
-3241 -1621 0
-3242 -1622 0
-3243 -1623 0
-3244 -1624 0
-3245 -1625 0
-3246 -1626 0
-3247 -1627 0
-3248 -1628 0
-3249 -1629 0
-3250 -1630 0
-3251 -1631 0
-3252 -1632 0
-3253 -1633 0
-3254 -1634 0
-3255 -1635 0
-3256 -1636 0
-3257 -1637 0
-3258 -1638 0
-3259 -1639 0
-3260 -1640 0
-3261 -1641 0
-3262 -1642 0
-3263 -1643 0
-3264 -1644 0
-3265 -1645 0
-3266 -1646 0
-3267 -1647 0
-3268 -1648 0
-3269 -1649 0
-3270 -1650 0
-3271 -1651 0
-3272 -1652 0
-3273 -1653 0
-3274 -1654 0
-3275 -1655 0
-3276 -1656 0
-3277 -1657 0
-3278 -1658 0
-3279 -1659 0
-3280 -1660 0
-3281 -1661 0
-3282 -1662 0
-3283 -1663 0
-3284 -1664 0
-3285 -1665 0
-3286 -1666 0
-3287 -1667 0
-3288 -1668 0
-3289 -1669 0
-3290 -1670 0
-3291 -1671 0
-3292 -1672 0
-3293 -1673 0
-3294 -1674 0
-3295 -1675 0
-3296 -1676 0
-3297 -1677 0
-3298 -1678 0
-3299 -1679 0
-3300 -1680 0
-3241 -2041 0
-3242 -2042 0
-3243 -2043 0
-3244 -2044 0
-3245 -2045 0
-3246 -2046 0
-3247 -2047 0
-3248 -2048 0
-3249 -2049 0
-3250 -2050 0
-3251 -2051 0
-3252 -2052 0
-3253 -2053 0
-3254 -2054 0
-3255 -2055 0
-3256 -2056 0
-3257 -2057 0
-3258 -2058 0
-3259 -2059 0
-3260 -2060 0
-3261 -2061 0
-3262 -2062 0
-3263 -2063 0
-3264 -2064 0
-3265 -2065 0
-3266 -2066 0
-3267 -2067 0
-3268 -2068 0
-3269 -2069 0
-3270 -2070 0
-3271 -2071 0
-3272 -2072 0
-3273 -2073 0
-3274 -2074 0
-3275 -2075 0
-3276 -2076 0
-3277 -2077 0
-3278 -2078 0
-3279 -2079 0
-3280 -2080 0
-3281 -2081 0
-3282 -2082 0
-3283 -2083 0
-3284 -2084 0
-3285 -2085 0
-3286 -2086 0
-3287 -2087 0
-3288 -2088 0
-3289 -2089 0
-3290 -2090 0
-3291 -2091 0
-3292 -2092 0
-3293 -2093 0
-3294 -2094 0
-3295 -2095 0
-3296 -2096 0
-3297 -2097 0
-3298 -2098 0
-3299 -2099 0
-3300 -2100 0
-3241 -2161 0
-3242 -2162 0
-3243 -2163 0
-3244 -2164 0
-3245 -2165 0
-3246 -2166 0
-3247 -2167 0
-3248 -2168 0
-3249 -2169 0
-3250 -2170 0
-3251 -2171 0
-3252 -2172 0
-3253 -2173 0
-3254 -2174 0
-3255 -2175 0
-3256 -2176 0
-3257 -2177 0
-3258 -2178 0
-3259 -2179 0
-3260 -2180 0
-3261 -2181 0
-3262 -2182 0
-3263 -2183 0
-3264 -2184 0
-3265 -2185 0
-3266 -2186 0
-3267 -2187 0
-3268 -2188 0
-3269 -2189 0
-3270 -2190 0
-3271 -2191 0
-3272 -2192 0
-3273 -2193 0
-3274 -2194 0
-3275 -2195 0
-3276 -2196 0
-3277 -2197 0
-3278 -2198 0
-3279 -2199 0
-3280 -2200 0
-3281 -2201 0
-3282 -2202 0
-3283 -2203 0
-3284 -2204 0
-3285 -2205 0
-3286 -2206 0
-3287 -2207 0
-3288 -2208 0
-3289 -2209 0
-3290 -2210 0
-3291 -2211 0
-3292 -2212 0
-3293 -2213 0
-3294 -2214 0
-3295 -2215 0
-3296 -2216 0
-3297 -2217 0
-3298 -2218 0
-3299 -2219 0
-3300 -2220 0
-3241 -2581 0
-3242 -2582 0
-3243 -2583 0
-3244 -2584 0
-3245 -2585 0
-3246 -2586 0
-3247 -2587 0
-3248 -2588 0
-3249 -2589 0
-3250 -2590 0
-3251 -2591 0
-3252 -2592 0
-3253 -2593 0
-3254 -2594 0
-3255 -2595 0
-3256 -2596 0
-3257 -2597 0
-3258 -2598 0
-3259 -2599 0
-3260 -2600 0
-3261 -2601 0
-3262 -2602 0
-3263 -2603 0
-3264 -2604 0
-3265 -2605 0
-3266 -2606 0
-3267 -2607 0
-3268 -2608 0
-3269 -2609 0
-3270 -2610 0
-3271 -2611 0
-3272 -2612 0
-3273 -2613 0
-3274 -2614 0
-3275 -2615 0
-3276 -2616 0
-3277 -2617 0
-3278 -2618 0
-3279 -2619 0
-3280 -2620 0
-3281 -2621 0
-3282 -2622 0
-3283 -2623 0
-3284 -2624 0
-3285 -2625 0
-3286 -2626 0
-3287 -2627 0
-3288 -2628 0
-3289 -2629 0
-3290 -2630 0
-3291 -2631 0
-3292 -2632 0
-3293 -2633 0
-3294 -2634 0
-3295 -2635 0
-3296 -2636 0
-3297 -2637 0
-3298 -2638 0
-3299 -2639 0
-3300 -2640 0
-3241 -2821 0
-3242 -2822 0
-3243 -2823 0
-3244 -2824 0
-3245 -2825 0
-3246 -2826 0
-3247 -2827 0
-3248 -2828 0
-3249 -2829 0
-3250 -2830 0
-3251 -2831 0
-3252 -2832 0
-3253 -2833 0
-3254 -2834 0
-3255 -2835 0
-3256 -2836 0
-3257 -2837 0
-3258 -2838 0
-3259 -2839 0
-3260 -2840 0
-3261 -2841 0
-3262 -2842 0
-3263 -2843 0
-3264 -2844 0
-3265 -2845 0
-3266 -2846 0
-3267 -2847 0
-3268 -2848 0
-3269 -2849 0
-3270 -2850 0
-3271 -2851 0
-3272 -2852 0
-3273 -2853 0
-3274 -2854 0
-3275 -2855 0
-3276 -2856 0
-3277 -2857 0
-3278 -2858 0
-3279 -2859 0
-3280 -2860 0
-3281 -2861 0
-3282 -2862 0
-3283 -2863 0
-3284 -2864 0
-3285 -2865 0
-3286 -2866 0
-3287 -2867 0
-3288 -2868 0
-3289 -2869 0
-3290 -2870 0
-3291 -2871 0
-3292 -2872 0
-3293 -2873 0
-3294 -2874 0
-3295 -2875 0
-3296 -2876 0
-3297 -2877 0
-3298 -2878 0
-3299 -2879 0
-3300 -2880 0
-3241 -3361 0
-3242 -3362 0
-3243 -3363 0
-3244 -3364 0
-3245 -3365 0
-3246 -3366 0
-3247 -3367 0
-3248 -3368 0
-3249 -3369 0
-3250 -3370 0
-3251 -3371 0
-3252 -3372 0
-3253 -3373 0
-3254 -3374 0
-3255 -3375 0
-3256 -3376 0
-3257 -3377 0
-3258 -3378 0
-3259 -3379 0
-3260 -3380 0
-3261 -3381 0
-3262 -3382 0
-3263 -3383 0
-3264 -3384 0
-3265 -3385 0
-3266 -3386 0
-3267 -3387 0
-3268 -3388 0
-3269 -3389 0
-3270 -3390 0
-3271 -3391 0
-3272 -3392 0
-3273 -3393 0
-3274 -3394 0
-3275 -3395 0
-3276 -3396 0
-3277 -3397 0
-3278 -3398 0
-3279 -3399 0
-3280 -3400 0
-3281 -3401 0
-3282 -3402 0
-3283 -3403 0
-3284 -3404 0
-3285 -3405 0
-3286 -3406 0
-3287 -3407 0
-3288 -3408 0
-3289 -3409 0
-3290 -3410 0
-3291 -3411 0
-3292 -3412 0
-3293 -3413 0
-3294 -3414 0
-3295 -3415 0
-3296 -3416 0
-3297 -3417 0
-3298 -3418 0
-3299 -3419 0
-3300 -3420 0
-3241 -3421 0
-3242 -3422 0
-3243 -3423 0
-3244 -3424 0
-3245 -3425 0
-3246 -3426 0
-3247 -3427 0
-3248 -3428 0
-3249 -3429 0
-3250 -3430 0
-3251 -3431 0
-3252 -3432 0
-3253 -3433 0
-3254 -3434 0
-3255 -3435 0
-3256 -3436 0
-3257 -3437 0
-3258 -3438 0
-3259 -3439 0
-3260 -3440 0
-3261 -3441 0
-3262 -3442 0
-3263 -3443 0
-3264 -3444 0
-3265 -3445 0
-3266 -3446 0
-3267 -3447 0
-3268 -3448 0
-3269 -3449 0
-3270 -3450 0
-3271 -3451 0
-3272 -3452 0
-3273 -3453 0
-3274 -3454 0
-3275 -3455 0
-3276 -3456 0
-3277 -3457 0
-3278 -3458 0
-3279 -3459 0
-3280 -3460 0
-3281 -3461 0
-3282 -3462 0
-3283 -3463 0
-3284 -3464 0
-3285 -3465 0
-3286 -3466 0
-3287 -3467 0
-3288 -3468 0
-3289 -3469 0
-3290 -3470 0
-3291 -3471 0
-3292 -3472 0
-3293 -3473 0
-3294 -3474 0
-3295 -3475 0
-3296 -3476 0
-3297 -3477 0
-3298 -3478 0
-3299 -3479 0
-3300 -3480 0
-3241 -4261 0
-3242 -4262 0
-3243 -4263 0
-3244 -4264 0
-3245 -4265 0
-3246 -4266 0
-3247 -4267 0
-3248 -4268 0
-3249 -4269 0
-3250 -4270 0
-3251 -4271 0
-3252 -4272 0
-3253 -4273 0
-3254 -4274 0
-3255 -4275 0
-3256 -4276 0
-3257 -4277 0
-3258 -4278 0
-3259 -4279 0
-3260 -4280 0
-3261 -4281 0
-3262 -4282 0
-3263 -4283 0
-3264 -4284 0
-3265 -4285 0
-3266 -4286 0
-3267 -4287 0
-3268 -4288 0
-3269 -4289 0
-3270 -4290 0
-3271 -4291 0
-3272 -4292 0
-3273 -4293 0
-3274 -4294 0
-3275 -4295 0
-3276 -4296 0
-3277 -4297 0
-3278 -4298 0
-3279 -4299 0
-3280 -4300 0
-3281 -4301 0
-3282 -4302 0
-3283 -4303 0
-3284 -4304 0
-3285 -4305 0
-3286 -4306 0
-3287 -4307 0
-3288 -4308 0
-3289 -4309 0
-3290 -4310 0
-3291 -4311 0
-3292 -4312 0
-3293 -4313 0
-3294 -4314 0
-3295 -4315 0
-3296 -4316 0
-3297 -4317 0
-3298 -4318 0
-3299 -4319 0
-3300 -4320 0
-3301 -421 0
-3302 -422 0
-3303 -423 0
-3304 -424 0
-3305 -425 0
-3306 -426 0
-3307 -427 0
-3308 -428 0
-3309 -429 0
-3310 -430 0
-3311 -431 0
-3312 -432 0
-3313 -433 0
-3314 -434 0
-3315 -435 0
-3316 -436 0
-3317 -437 0
-3318 -438 0
-3319 -439 0
-3320 -440 0
-3321 -441 0
-3322 -442 0
-3323 -443 0
-3324 -444 0
-3325 -445 0
-3326 -446 0
-3327 -447 0
-3328 -448 0
-3329 -449 0
-3330 -450 0
-3331 -451 0
-3332 -452 0
-3333 -453 0
-3334 -454 0
-3335 -455 0
-3336 -456 0
-3337 -457 0
-3338 -458 0
-3339 -459 0
-3340 -460 0
-3341 -461 0
-3342 -462 0
-3343 -463 0
-3344 -464 0
-3345 -465 0
-3346 -466 0
-3347 -467 0
-3348 -468 0
-3349 -469 0
-3350 -470 0
-3351 -471 0
-3352 -472 0
-3353 -473 0
-3354 -474 0
-3355 -475 0
-3356 -476 0
-3357 -477 0
-3358 -478 0
-3359 -479 0
-3360 -480 0
-3361 -121 0
-3362 -122 0
-3363 -123 0
-3364 -124 0
-3365 -125 0
-3366 -126 0
-3367 -127 0
-3368 -128 0
-3369 -129 0
-3370 -130 0
-3371 -131 0
-3372 -132 0
-3373 -133 0
-3374 -134 0
-3375 -135 0
-3376 -136 0
-3377 -137 0
-3378 -138 0
-3379 -139 0
-3380 -140 0
-3381 -141 0
-3382 -142 0
-3383 -143 0
-3384 -144 0
-3385 -145 0
-3386 -146 0
-3387 -147 0
-3388 -148 0
-3389 -149 0
-3390 -150 0
-3391 -151 0
-3392 -152 0
-3393 -153 0
-3394 -154 0
-3395 -155 0
-3396 -156 0
-3397 -157 0
-3398 -158 0
-3399 -159 0
-3400 -160 0
-3401 -161 0
-3402 -162 0
-3403 -163 0
-3404 -164 0
-3405 -165 0
-3406 -166 0
-3407 -167 0
-3408 -168 0
-3409 -169 0
-3410 -170 0
-3411 -171 0
-3412 -172 0
-3413 -173 0
-3414 -174 0
-3415 -175 0
-3416 -176 0
-3417 -177 0
-3418 -178 0
-3419 -179 0
-3420 -180 0
-3361 -301 0
-3362 -302 0
-3363 -303 0
-3364 -304 0
-3365 -305 0
-3366 -306 0
-3367 -307 0
-3368 -308 0
-3369 -309 0
-3370 -310 0
-3371 -311 0
-3372 -312 0
-3373 -313 0
-3374 -314 0
-3375 -315 0
-3376 -316 0
-3377 -317 0
-3378 -318 0
-3379 -319 0
-3380 -320 0
-3381 -321 0
-3382 -322 0
-3383 -323 0
-3384 -324 0
-3385 -325 0
-3386 -326 0
-3387 -327 0
-3388 -328 0
-3389 -329 0
-3390 -330 0
-3391 -331 0
-3392 -332 0
-3393 -333 0
-3394 -334 0
-3395 -335 0
-3396 -336 0
-3397 -337 0
-3398 -338 0
-3399 -339 0
-3400 -340 0
-3401 -341 0
-3402 -342 0
-3403 -343 0
-3404 -344 0
-3405 -345 0
-3406 -346 0
-3407 -347 0
-3408 -348 0
-3409 -349 0
-3410 -350 0
-3411 -351 0
-3412 -352 0
-3413 -353 0
-3414 -354 0
-3415 -355 0
-3416 -356 0
-3417 -357 0
-3418 -358 0
-3419 -359 0
-3420 -360 0
-3361 -841 0
-3362 -842 0
-3363 -843 0
-3364 -844 0
-3365 -845 0
-3366 -846 0
-3367 -847 0
-3368 -848 0
-3369 -849 0
-3370 -850 0
-3371 -851 0
-3372 -852 0
-3373 -853 0
-3374 -854 0
-3375 -855 0
-3376 -856 0
-3377 -857 0
-3378 -858 0
-3379 -859 0
-3380 -860 0
-3381 -861 0
-3382 -862 0
-3383 -863 0
-3384 -864 0
-3385 -865 0
-3386 -866 0
-3387 -867 0
-3388 -868 0
-3389 -869 0
-3390 -870 0
-3391 -871 0
-3392 -872 0
-3393 -873 0
-3394 -874 0
-3395 -875 0
-3396 -876 0
-3397 -877 0
-3398 -878 0
-3399 -879 0
-3400 -880 0
-3401 -881 0
-3402 -882 0
-3403 -883 0
-3404 -884 0
-3405 -885 0
-3406 -886 0
-3407 -887 0
-3408 -888 0
-3409 -889 0
-3410 -890 0
-3411 -891 0
-3412 -892 0
-3413 -893 0
-3414 -894 0
-3415 -895 0
-3416 -896 0
-3417 -897 0
-3418 -898 0
-3419 -899 0
-3420 -900 0
-3361 -901 0
-3362 -902 0
-3363 -903 0
-3364 -904 0
-3365 -905 0
-3366 -906 0
-3367 -907 0
-3368 -908 0
-3369 -909 0
-3370 -910 0
-3371 -911 0
-3372 -912 0
-3373 -913 0
-3374 -914 0
-3375 -915 0
-3376 -916 0
-3377 -917 0
-3378 -918 0
-3379 -919 0
-3380 -920 0
-3381 -921 0
-3382 -922 0
-3383 -923 0
-3384 -924 0
-3385 -925 0
-3386 -926 0
-3387 -927 0
-3388 -928 0
-3389 -929 0
-3390 -930 0
-3391 -931 0
-3392 -932 0
-3393 -933 0
-3394 -934 0
-3395 -935 0
-3396 -936 0
-3397 -937 0
-3398 -938 0
-3399 -939 0
-3400 -940 0
-3401 -941 0
-3402 -942 0
-3403 -943 0
-3404 -944 0
-3405 -945 0
-3406 -946 0
-3407 -947 0
-3408 -948 0
-3409 -949 0
-3410 -950 0
-3411 -951 0
-3412 -952 0
-3413 -953 0
-3414 -954 0
-3415 -955 0
-3416 -956 0
-3417 -957 0
-3418 -958 0
-3419 -959 0
-3420 -960 0
-3361 -1021 0
-3362 -1022 0
-3363 -1023 0
-3364 -1024 0
-3365 -1025 0
-3366 -1026 0
-3367 -1027 0
-3368 -1028 0
-3369 -1029 0
-3370 -1030 0
-3371 -1031 0
-3372 -1032 0
-3373 -1033 0
-3374 -1034 0
-3375 -1035 0
-3376 -1036 0
-3377 -1037 0
-3378 -1038 0
-3379 -1039 0
-3380 -1040 0
-3381 -1041 0
-3382 -1042 0
-3383 -1043 0
-3384 -1044 0
-3385 -1045 0
-3386 -1046 0
-3387 -1047 0
-3388 -1048 0
-3389 -1049 0
-3390 -1050 0
-3391 -1051 0
-3392 -1052 0
-3393 -1053 0
-3394 -1054 0
-3395 -1055 0
-3396 -1056 0
-3397 -1057 0
-3398 -1058 0
-3399 -1059 0
-3400 -1060 0
-3401 -1061 0
-3402 -1062 0
-3403 -1063 0
-3404 -1064 0
-3405 -1065 0
-3406 -1066 0
-3407 -1067 0
-3408 -1068 0
-3409 -1069 0
-3410 -1070 0
-3411 -1071 0
-3412 -1072 0
-3413 -1073 0
-3414 -1074 0
-3415 -1075 0
-3416 -1076 0
-3417 -1077 0
-3418 -1078 0
-3419 -1079 0
-3420 -1080 0
-3361 -1621 0
-3362 -1622 0
-3363 -1623 0
-3364 -1624 0
-3365 -1625 0
-3366 -1626 0
-3367 -1627 0
-3368 -1628 0
-3369 -1629 0
-3370 -1630 0
-3371 -1631 0
-3372 -1632 0
-3373 -1633 0
-3374 -1634 0
-3375 -1635 0
-3376 -1636 0
-3377 -1637 0
-3378 -1638 0
-3379 -1639 0
-3380 -1640 0
-3381 -1641 0
-3382 -1642 0
-3383 -1643 0
-3384 -1644 0
-3385 -1645 0
-3386 -1646 0
-3387 -1647 0
-3388 -1648 0
-3389 -1649 0
-3390 -1650 0
-3391 -1651 0
-3392 -1652 0
-3393 -1653 0
-3394 -1654 0
-3395 -1655 0
-3396 -1656 0
-3397 -1657 0
-3398 -1658 0
-3399 -1659 0
-3400 -1660 0
-3401 -1661 0
-3402 -1662 0
-3403 -1663 0
-3404 -1664 0
-3405 -1665 0
-3406 -1666 0
-3407 -1667 0
-3408 -1668 0
-3409 -1669 0
-3410 -1670 0
-3411 -1671 0
-3412 -1672 0
-3413 -1673 0
-3414 -1674 0
-3415 -1675 0
-3416 -1676 0
-3417 -1677 0
-3418 -1678 0
-3419 -1679 0
-3420 -1680 0
-3361 -2041 0
-3362 -2042 0
-3363 -2043 0
-3364 -2044 0
-3365 -2045 0
-3366 -2046 0
-3367 -2047 0
-3368 -2048 0
-3369 -2049 0
-3370 -2050 0
-3371 -2051 0
-3372 -2052 0
-3373 -2053 0
-3374 -2054 0
-3375 -2055 0
-3376 -2056 0
-3377 -2057 0
-3378 -2058 0
-3379 -2059 0
-3380 -2060 0
-3381 -2061 0
-3382 -2062 0
-3383 -2063 0
-3384 -2064 0
-3385 -2065 0
-3386 -2066 0
-3387 -2067 0
-3388 -2068 0
-3389 -2069 0
-3390 -2070 0
-3391 -2071 0
-3392 -2072 0
-3393 -2073 0
-3394 -2074 0
-3395 -2075 0
-3396 -2076 0
-3397 -2077 0
-3398 -2078 0
-3399 -2079 0
-3400 -2080 0
-3401 -2081 0
-3402 -2082 0
-3403 -2083 0
-3404 -2084 0
-3405 -2085 0
-3406 -2086 0
-3407 -2087 0
-3408 -2088 0
-3409 -2089 0
-3410 -2090 0
-3411 -2091 0
-3412 -2092 0
-3413 -2093 0
-3414 -2094 0
-3415 -2095 0
-3416 -2096 0
-3417 -2097 0
-3418 -2098 0
-3419 -2099 0
-3420 -2100 0
-3361 -2161 0
-3362 -2162 0
-3363 -2163 0
-3364 -2164 0
-3365 -2165 0
-3366 -2166 0
-3367 -2167 0
-3368 -2168 0
-3369 -2169 0
-3370 -2170 0
-3371 -2171 0
-3372 -2172 0
-3373 -2173 0
-3374 -2174 0
-3375 -2175 0
-3376 -2176 0
-3377 -2177 0
-3378 -2178 0
-3379 -2179 0
-3380 -2180 0
-3381 -2181 0
-3382 -2182 0
-3383 -2183 0
-3384 -2184 0
-3385 -2185 0
-3386 -2186 0
-3387 -2187 0
-3388 -2188 0
-3389 -2189 0
-3390 -2190 0
-3391 -2191 0
-3392 -2192 0
-3393 -2193 0
-3394 -2194 0
-3395 -2195 0
-3396 -2196 0
-3397 -2197 0
-3398 -2198 0
-3399 -2199 0
-3400 -2200 0
-3401 -2201 0
-3402 -2202 0
-3403 -2203 0
-3404 -2204 0
-3405 -2205 0
-3406 -2206 0
-3407 -2207 0
-3408 -2208 0
-3409 -2209 0
-3410 -2210 0
-3411 -2211 0
-3412 -2212 0
-3413 -2213 0
-3414 -2214 0
-3415 -2215 0
-3416 -2216 0
-3417 -2217 0
-3418 -2218 0
-3419 -2219 0
-3420 -2220 0
-3361 -2581 0
-3362 -2582 0
-3363 -2583 0
-3364 -2584 0
-3365 -2585 0
-3366 -2586 0
-3367 -2587 0
-3368 -2588 0
-3369 -2589 0
-3370 -2590 0
-3371 -2591 0
-3372 -2592 0
-3373 -2593 0
-3374 -2594 0
-3375 -2595 0
-3376 -2596 0
-3377 -2597 0
-3378 -2598 0
-3379 -2599 0
-3380 -2600 0
-3381 -2601 0
-3382 -2602 0
-3383 -2603 0
-3384 -2604 0
-3385 -2605 0
-3386 -2606 0
-3387 -2607 0
-3388 -2608 0
-3389 -2609 0
-3390 -2610 0
-3391 -2611 0
-3392 -2612 0
-3393 -2613 0
-3394 -2614 0
-3395 -2615 0
-3396 -2616 0
-3397 -2617 0
-3398 -2618 0
-3399 -2619 0
-3400 -2620 0
-3401 -2621 0
-3402 -2622 0
-3403 -2623 0
-3404 -2624 0
-3405 -2625 0
-3406 -2626 0
-3407 -2627 0
-3408 -2628 0
-3409 -2629 0
-3410 -2630 0
-3411 -2631 0
-3412 -2632 0
-3413 -2633 0
-3414 -2634 0
-3415 -2635 0
-3416 -2636 0
-3417 -2637 0
-3418 -2638 0
-3419 -2639 0
-3420 -2640 0
-3361 -2821 0
-3362 -2822 0
-3363 -2823 0
-3364 -2824 0
-3365 -2825 0
-3366 -2826 0
-3367 -2827 0
-3368 -2828 0
-3369 -2829 0
-3370 -2830 0
-3371 -2831 0
-3372 -2832 0
-3373 -2833 0
-3374 -2834 0
-3375 -2835 0
-3376 -2836 0
-3377 -2837 0
-3378 -2838 0
-3379 -2839 0
-3380 -2840 0
-3381 -2841 0
-3382 -2842 0
-3383 -2843 0
-3384 -2844 0
-3385 -2845 0
-3386 -2846 0
-3387 -2847 0
-3388 -2848 0
-3389 -2849 0
-3390 -2850 0
-3391 -2851 0
-3392 -2852 0
-3393 -2853 0
-3394 -2854 0
-3395 -2855 0
-3396 -2856 0
-3397 -2857 0
-3398 -2858 0
-3399 -2859 0
-3400 -2860 0
-3401 -2861 0
-3402 -2862 0
-3403 -2863 0
-3404 -2864 0
-3405 -2865 0
-3406 -2866 0
-3407 -2867 0
-3408 -2868 0
-3409 -2869 0
-3410 -2870 0
-3411 -2871 0
-3412 -2872 0
-3413 -2873 0
-3414 -2874 0
-3415 -2875 0
-3416 -2876 0
-3417 -2877 0
-3418 -2878 0
-3419 -2879 0
-3420 -2880 0
-3361 -3001 0
-3362 -3002 0
-3363 -3003 0
-3364 -3004 0
-3365 -3005 0
-3366 -3006 0
-3367 -3007 0
-3368 -3008 0
-3369 -3009 0
-3370 -3010 0
-3371 -3011 0
-3372 -3012 0
-3373 -3013 0
-3374 -3014 0
-3375 -3015 0
-3376 -3016 0
-3377 -3017 0
-3378 -3018 0
-3379 -3019 0
-3380 -3020 0
-3381 -3021 0
-3382 -3022 0
-3383 -3023 0
-3384 -3024 0
-3385 -3025 0
-3386 -3026 0
-3387 -3027 0
-3388 -3028 0
-3389 -3029 0
-3390 -3030 0
-3391 -3031 0
-3392 -3032 0
-3393 -3033 0
-3394 -3034 0
-3395 -3035 0
-3396 -3036 0
-3397 -3037 0
-3398 -3038 0
-3399 -3039 0
-3400 -3040 0
-3401 -3041 0
-3402 -3042 0
-3403 -3043 0
-3404 -3044 0
-3405 -3045 0
-3406 -3046 0
-3407 -3047 0
-3408 -3048 0
-3409 -3049 0
-3410 -3050 0
-3411 -3051 0
-3412 -3052 0
-3413 -3053 0
-3414 -3054 0
-3415 -3055 0
-3416 -3056 0
-3417 -3057 0
-3418 -3058 0
-3419 -3059 0
-3420 -3060 0
-3361 -3241 0
-3362 -3242 0
-3363 -3243 0
-3364 -3244 0
-3365 -3245 0
-3366 -3246 0
-3367 -3247 0
-3368 -3248 0
-3369 -3249 0
-3370 -3250 0
-3371 -3251 0
-3372 -3252 0
-3373 -3253 0
-3374 -3254 0
-3375 -3255 0
-3376 -3256 0
-3377 -3257 0
-3378 -3258 0
-3379 -3259 0
-3380 -3260 0
-3381 -3261 0
-3382 -3262 0
-3383 -3263 0
-3384 -3264 0
-3385 -3265 0
-3386 -3266 0
-3387 -3267 0
-3388 -3268 0
-3389 -3269 0
-3390 -3270 0
-3391 -3271 0
-3392 -3272 0
-3393 -3273 0
-3394 -3274 0
-3395 -3275 0
-3396 -3276 0
-3397 -3277 0
-3398 -3278 0
-3399 -3279 0
-3400 -3280 0
-3401 -3281 0
-3402 -3282 0
-3403 -3283 0
-3404 -3284 0
-3405 -3285 0
-3406 -3286 0
-3407 -3287 0
-3408 -3288 0
-3409 -3289 0
-3410 -3290 0
-3411 -3291 0
-3412 -3292 0
-3413 -3293 0
-3414 -3294 0
-3415 -3295 0
-3416 -3296 0
-3417 -3297 0
-3418 -3298 0
-3419 -3299 0
-3420 -3300 0
-3361 -3421 0
-3362 -3422 0
-3363 -3423 0
-3364 -3424 0
-3365 -3425 0
-3366 -3426 0
-3367 -3427 0
-3368 -3428 0
-3369 -3429 0
-3370 -3430 0
-3371 -3431 0
-3372 -3432 0
-3373 -3433 0
-3374 -3434 0
-3375 -3435 0
-3376 -3436 0
-3377 -3437 0
-3378 -3438 0
-3379 -3439 0
-3380 -3440 0
-3381 -3441 0
-3382 -3442 0
-3383 -3443 0
-3384 -3444 0
-3385 -3445 0
-3386 -3446 0
-3387 -3447 0
-3388 -3448 0
-3389 -3449 0
-3390 -3450 0
-3391 -3451 0
-3392 -3452 0
-3393 -3453 0
-3394 -3454 0
-3395 -3455 0
-3396 -3456 0
-3397 -3457 0
-3398 -3458 0
-3399 -3459 0
-3400 -3460 0
-3401 -3461 0
-3402 -3462 0
-3403 -3463 0
-3404 -3464 0
-3405 -3465 0
-3406 -3466 0
-3407 -3467 0
-3408 -3468 0
-3409 -3469 0
-3410 -3470 0
-3411 -3471 0
-3412 -3472 0
-3413 -3473 0
-3414 -3474 0
-3415 -3475 0
-3416 -3476 0
-3417 -3477 0
-3418 -3478 0
-3419 -3479 0
-3420 -3480 0
-3361 -3481 0
-3362 -3482 0
-3363 -3483 0
-3364 -3484 0
-3365 -3485 0
-3366 -3486 0
-3367 -3487 0
-3368 -3488 0
-3369 -3489 0
-3370 -3490 0
-3371 -3491 0
-3372 -3492 0
-3373 -3493 0
-3374 -3494 0
-3375 -3495 0
-3376 -3496 0
-3377 -3497 0
-3378 -3498 0
-3379 -3499 0
-3380 -3500 0
-3381 -3501 0
-3382 -3502 0
-3383 -3503 0
-3384 -3504 0
-3385 -3505 0
-3386 -3506 0
-3387 -3507 0
-3388 -3508 0
-3389 -3509 0
-3390 -3510 0
-3391 -3511 0
-3392 -3512 0
-3393 -3513 0
-3394 -3514 0
-3395 -3515 0
-3396 -3516 0
-3397 -3517 0
-3398 -3518 0
-3399 -3519 0
-3400 -3520 0
-3401 -3521 0
-3402 -3522 0
-3403 -3523 0
-3404 -3524 0
-3405 -3525 0
-3406 -3526 0
-3407 -3527 0
-3408 -3528 0
-3409 -3529 0
-3410 -3530 0
-3411 -3531 0
-3412 -3532 0
-3413 -3533 0
-3414 -3534 0
-3415 -3535 0
-3416 -3536 0
-3417 -3537 0
-3418 -3538 0
-3419 -3539 0
-3420 -3540 0
-3361 -4261 0
-3362 -4262 0
-3363 -4263 0
-3364 -4264 0
-3365 -4265 0
-3366 -4266 0
-3367 -4267 0
-3368 -4268 0
-3369 -4269 0
-3370 -4270 0
-3371 -4271 0
-3372 -4272 0
-3373 -4273 0
-3374 -4274 0
-3375 -4275 0
-3376 -4276 0
-3377 -4277 0
-3378 -4278 0
-3379 -4279 0
-3380 -4280 0
-3381 -4281 0
-3382 -4282 0
-3383 -4283 0
-3384 -4284 0
-3385 -4285 0
-3386 -4286 0
-3387 -4287 0
-3388 -4288 0
-3389 -4289 0
-3390 -4290 0
-3391 -4291 0
-3392 -4292 0
-3393 -4293 0
-3394 -4294 0
-3395 -4295 0
-3396 -4296 0
-3397 -4297 0
-3398 -4298 0
-3399 -4299 0
-3400 -4300 0
-3401 -4301 0
-3402 -4302 0
-3403 -4303 0
-3404 -4304 0
-3405 -4305 0
-3406 -4306 0
-3407 -4307 0
-3408 -4308 0
-3409 -4309 0
-3410 -4310 0
-3411 -4311 0
-3412 -4312 0
-3413 -4313 0
-3414 -4314 0
-3415 -4315 0
-3416 -4316 0
-3417 -4317 0
-3418 -4318 0
-3419 -4319 0
-3420 -4320 0
-3361 -4501 0
-3362 -4502 0
-3363 -4503 0
-3364 -4504 0
-3365 -4505 0
-3366 -4506 0
-3367 -4507 0
-3368 -4508 0
-3369 -4509 0
-3370 -4510 0
-3371 -4511 0
-3372 -4512 0
-3373 -4513 0
-3374 -4514 0
-3375 -4515 0
-3376 -4516 0
-3377 -4517 0
-3378 -4518 0
-3379 -4519 0
-3380 -4520 0
-3381 -4521 0
-3382 -4522 0
-3383 -4523 0
-3384 -4524 0
-3385 -4525 0
-3386 -4526 0
-3387 -4527 0
-3388 -4528 0
-3389 -4529 0
-3390 -4530 0
-3391 -4531 0
-3392 -4532 0
-3393 -4533 0
-3394 -4534 0
-3395 -4535 0
-3396 -4536 0
-3397 -4537 0
-3398 -4538 0
-3399 -4539 0
-3400 -4540 0
-3401 -4541 0
-3402 -4542 0
-3403 -4543 0
-3404 -4544 0
-3405 -4545 0
-3406 -4546 0
-3407 -4547 0
-3408 -4548 0
-3409 -4549 0
-3410 -4550 0
-3411 -4551 0
-3412 -4552 0
-3413 -4553 0
-3414 -4554 0
-3415 -4555 0
-3416 -4556 0
-3417 -4557 0
-3418 -4558 0
-3419 -4559 0
-3420 -4560 0
-3421 -301 0
-3422 -302 0
-3423 -303 0
-3424 -304 0
-3425 -305 0
-3426 -306 0
-3427 -307 0
-3428 -308 0
-3429 -309 0
-3430 -310 0
-3431 -311 0
-3432 -312 0
-3433 -313 0
-3434 -314 0
-3435 -315 0
-3436 -316 0
-3437 -317 0
-3438 -318 0
-3439 -319 0
-3440 -320 0
-3441 -321 0
-3442 -322 0
-3443 -323 0
-3444 -324 0
-3445 -325 0
-3446 -326 0
-3447 -327 0
-3448 -328 0
-3449 -329 0
-3450 -330 0
-3451 -331 0
-3452 -332 0
-3453 -333 0
-3454 -334 0
-3455 -335 0
-3456 -336 0
-3457 -337 0
-3458 -338 0
-3459 -339 0
-3460 -340 0
-3461 -341 0
-3462 -342 0
-3463 -343 0
-3464 -344 0
-3465 -345 0
-3466 -346 0
-3467 -347 0
-3468 -348 0
-3469 -349 0
-3470 -350 0
-3471 -351 0
-3472 -352 0
-3473 -353 0
-3474 -354 0
-3475 -355 0
-3476 -356 0
-3477 -357 0
-3478 -358 0
-3479 -359 0
-3480 -360 0
-3421 -901 0
-3422 -902 0
-3423 -903 0
-3424 -904 0
-3425 -905 0
-3426 -906 0
-3427 -907 0
-3428 -908 0
-3429 -909 0
-3430 -910 0
-3431 -911 0
-3432 -912 0
-3433 -913 0
-3434 -914 0
-3435 -915 0
-3436 -916 0
-3437 -917 0
-3438 -918 0
-3439 -919 0
-3440 -920 0
-3441 -921 0
-3442 -922 0
-3443 -923 0
-3444 -924 0
-3445 -925 0
-3446 -926 0
-3447 -927 0
-3448 -928 0
-3449 -929 0
-3450 -930 0
-3451 -931 0
-3452 -932 0
-3453 -933 0
-3454 -934 0
-3455 -935 0
-3456 -936 0
-3457 -937 0
-3458 -938 0
-3459 -939 0
-3460 -940 0
-3461 -941 0
-3462 -942 0
-3463 -943 0
-3464 -944 0
-3465 -945 0
-3466 -946 0
-3467 -947 0
-3468 -948 0
-3469 -949 0
-3470 -950 0
-3471 -951 0
-3472 -952 0
-3473 -953 0
-3474 -954 0
-3475 -955 0
-3476 -956 0
-3477 -957 0
-3478 -958 0
-3479 -959 0
-3480 -960 0
-3421 -1621 0
-3422 -1622 0
-3423 -1623 0
-3424 -1624 0
-3425 -1625 0
-3426 -1626 0
-3427 -1627 0
-3428 -1628 0
-3429 -1629 0
-3430 -1630 0
-3431 -1631 0
-3432 -1632 0
-3433 -1633 0
-3434 -1634 0
-3435 -1635 0
-3436 -1636 0
-3437 -1637 0
-3438 -1638 0
-3439 -1639 0
-3440 -1640 0
-3441 -1641 0
-3442 -1642 0
-3443 -1643 0
-3444 -1644 0
-3445 -1645 0
-3446 -1646 0
-3447 -1647 0
-3448 -1648 0
-3449 -1649 0
-3450 -1650 0
-3451 -1651 0
-3452 -1652 0
-3453 -1653 0
-3454 -1654 0
-3455 -1655 0
-3456 -1656 0
-3457 -1657 0
-3458 -1658 0
-3459 -1659 0
-3460 -1660 0
-3461 -1661 0
-3462 -1662 0
-3463 -1663 0
-3464 -1664 0
-3465 -1665 0
-3466 -1666 0
-3467 -1667 0
-3468 -1668 0
-3469 -1669 0
-3470 -1670 0
-3471 -1671 0
-3472 -1672 0
-3473 -1673 0
-3474 -1674 0
-3475 -1675 0
-3476 -1676 0
-3477 -1677 0
-3478 -1678 0
-3479 -1679 0
-3480 -1680 0
-3421 -2041 0
-3422 -2042 0
-3423 -2043 0
-3424 -2044 0
-3425 -2045 0
-3426 -2046 0
-3427 -2047 0
-3428 -2048 0
-3429 -2049 0
-3430 -2050 0
-3431 -2051 0
-3432 -2052 0
-3433 -2053 0
-3434 -2054 0
-3435 -2055 0
-3436 -2056 0
-3437 -2057 0
-3438 -2058 0
-3439 -2059 0
-3440 -2060 0
-3441 -2061 0
-3442 -2062 0
-3443 -2063 0
-3444 -2064 0
-3445 -2065 0
-3446 -2066 0
-3447 -2067 0
-3448 -2068 0
-3449 -2069 0
-3450 -2070 0
-3451 -2071 0
-3452 -2072 0
-3453 -2073 0
-3454 -2074 0
-3455 -2075 0
-3456 -2076 0
-3457 -2077 0
-3458 -2078 0
-3459 -2079 0
-3460 -2080 0
-3461 -2081 0
-3462 -2082 0
-3463 -2083 0
-3464 -2084 0
-3465 -2085 0
-3466 -2086 0
-3467 -2087 0
-3468 -2088 0
-3469 -2089 0
-3470 -2090 0
-3471 -2091 0
-3472 -2092 0
-3473 -2093 0
-3474 -2094 0
-3475 -2095 0
-3476 -2096 0
-3477 -2097 0
-3478 -2098 0
-3479 -2099 0
-3480 -2100 0
-3421 -2161 0
-3422 -2162 0
-3423 -2163 0
-3424 -2164 0
-3425 -2165 0
-3426 -2166 0
-3427 -2167 0
-3428 -2168 0
-3429 -2169 0
-3430 -2170 0
-3431 -2171 0
-3432 -2172 0
-3433 -2173 0
-3434 -2174 0
-3435 -2175 0
-3436 -2176 0
-3437 -2177 0
-3438 -2178 0
-3439 -2179 0
-3440 -2180 0
-3441 -2181 0
-3442 -2182 0
-3443 -2183 0
-3444 -2184 0
-3445 -2185 0
-3446 -2186 0
-3447 -2187 0
-3448 -2188 0
-3449 -2189 0
-3450 -2190 0
-3451 -2191 0
-3452 -2192 0
-3453 -2193 0
-3454 -2194 0
-3455 -2195 0
-3456 -2196 0
-3457 -2197 0
-3458 -2198 0
-3459 -2199 0
-3460 -2200 0
-3461 -2201 0
-3462 -2202 0
-3463 -2203 0
-3464 -2204 0
-3465 -2205 0
-3466 -2206 0
-3467 -2207 0
-3468 -2208 0
-3469 -2209 0
-3470 -2210 0
-3471 -2211 0
-3472 -2212 0
-3473 -2213 0
-3474 -2214 0
-3475 -2215 0
-3476 -2216 0
-3477 -2217 0
-3478 -2218 0
-3479 -2219 0
-3480 -2220 0
-3421 -2581 0
-3422 -2582 0
-3423 -2583 0
-3424 -2584 0
-3425 -2585 0
-3426 -2586 0
-3427 -2587 0
-3428 -2588 0
-3429 -2589 0
-3430 -2590 0
-3431 -2591 0
-3432 -2592 0
-3433 -2593 0
-3434 -2594 0
-3435 -2595 0
-3436 -2596 0
-3437 -2597 0
-3438 -2598 0
-3439 -2599 0
-3440 -2600 0
-3441 -2601 0
-3442 -2602 0
-3443 -2603 0
-3444 -2604 0
-3445 -2605 0
-3446 -2606 0
-3447 -2607 0
-3448 -2608 0
-3449 -2609 0
-3450 -2610 0
-3451 -2611 0
-3452 -2612 0
-3453 -2613 0
-3454 -2614 0
-3455 -2615 0
-3456 -2616 0
-3457 -2617 0
-3458 -2618 0
-3459 -2619 0
-3460 -2620 0
-3461 -2621 0
-3462 -2622 0
-3463 -2623 0
-3464 -2624 0
-3465 -2625 0
-3466 -2626 0
-3467 -2627 0
-3468 -2628 0
-3469 -2629 0
-3470 -2630 0
-3471 -2631 0
-3472 -2632 0
-3473 -2633 0
-3474 -2634 0
-3475 -2635 0
-3476 -2636 0
-3477 -2637 0
-3478 -2638 0
-3479 -2639 0
-3480 -2640 0
-3421 -2821 0
-3422 -2822 0
-3423 -2823 0
-3424 -2824 0
-3425 -2825 0
-3426 -2826 0
-3427 -2827 0
-3428 -2828 0
-3429 -2829 0
-3430 -2830 0
-3431 -2831 0
-3432 -2832 0
-3433 -2833 0
-3434 -2834 0
-3435 -2835 0
-3436 -2836 0
-3437 -2837 0
-3438 -2838 0
-3439 -2839 0
-3440 -2840 0
-3441 -2841 0
-3442 -2842 0
-3443 -2843 0
-3444 -2844 0
-3445 -2845 0
-3446 -2846 0
-3447 -2847 0
-3448 -2848 0
-3449 -2849 0
-3450 -2850 0
-3451 -2851 0
-3452 -2852 0
-3453 -2853 0
-3454 -2854 0
-3455 -2855 0
-3456 -2856 0
-3457 -2857 0
-3458 -2858 0
-3459 -2859 0
-3460 -2860 0
-3461 -2861 0
-3462 -2862 0
-3463 -2863 0
-3464 -2864 0
-3465 -2865 0
-3466 -2866 0
-3467 -2867 0
-3468 -2868 0
-3469 -2869 0
-3470 -2870 0
-3471 -2871 0
-3472 -2872 0
-3473 -2873 0
-3474 -2874 0
-3475 -2875 0
-3476 -2876 0
-3477 -2877 0
-3478 -2878 0
-3479 -2879 0
-3480 -2880 0
-3421 -3241 0
-3422 -3242 0
-3423 -3243 0
-3424 -3244 0
-3425 -3245 0
-3426 -3246 0
-3427 -3247 0
-3428 -3248 0
-3429 -3249 0
-3430 -3250 0
-3431 -3251 0
-3432 -3252 0
-3433 -3253 0
-3434 -3254 0
-3435 -3255 0
-3436 -3256 0
-3437 -3257 0
-3438 -3258 0
-3439 -3259 0
-3440 -3260 0
-3441 -3261 0
-3442 -3262 0
-3443 -3263 0
-3444 -3264 0
-3445 -3265 0
-3446 -3266 0
-3447 -3267 0
-3448 -3268 0
-3449 -3269 0
-3450 -3270 0
-3451 -3271 0
-3452 -3272 0
-3453 -3273 0
-3454 -3274 0
-3455 -3275 0
-3456 -3276 0
-3457 -3277 0
-3458 -3278 0
-3459 -3279 0
-3460 -3280 0
-3461 -3281 0
-3462 -3282 0
-3463 -3283 0
-3464 -3284 0
-3465 -3285 0
-3466 -3286 0
-3467 -3287 0
-3468 -3288 0
-3469 -3289 0
-3470 -3290 0
-3471 -3291 0
-3472 -3292 0
-3473 -3293 0
-3474 -3294 0
-3475 -3295 0
-3476 -3296 0
-3477 -3297 0
-3478 -3298 0
-3479 -3299 0
-3480 -3300 0
-3421 -3361 0
-3422 -3362 0
-3423 -3363 0
-3424 -3364 0
-3425 -3365 0
-3426 -3366 0
-3427 -3367 0
-3428 -3368 0
-3429 -3369 0
-3430 -3370 0
-3431 -3371 0
-3432 -3372 0
-3433 -3373 0
-3434 -3374 0
-3435 -3375 0
-3436 -3376 0
-3437 -3377 0
-3438 -3378 0
-3439 -3379 0
-3440 -3380 0
-3441 -3381 0
-3442 -3382 0
-3443 -3383 0
-3444 -3384 0
-3445 -3385 0
-3446 -3386 0
-3447 -3387 0
-3448 -3388 0
-3449 -3389 0
-3450 -3390 0
-3451 -3391 0
-3452 -3392 0
-3453 -3393 0
-3454 -3394 0
-3455 -3395 0
-3456 -3396 0
-3457 -3397 0
-3458 -3398 0
-3459 -3399 0
-3460 -3400 0
-3461 -3401 0
-3462 -3402 0
-3463 -3403 0
-3464 -3404 0
-3465 -3405 0
-3466 -3406 0
-3467 -3407 0
-3468 -3408 0
-3469 -3409 0
-3470 -3410 0
-3471 -3411 0
-3472 -3412 0
-3473 -3413 0
-3474 -3414 0
-3475 -3415 0
-3476 -3416 0
-3477 -3417 0
-3478 -3418 0
-3479 -3419 0
-3480 -3420 0
-3421 -4261 0
-3422 -4262 0
-3423 -4263 0
-3424 -4264 0
-3425 -4265 0
-3426 -4266 0
-3427 -4267 0
-3428 -4268 0
-3429 -4269 0
-3430 -4270 0
-3431 -4271 0
-3432 -4272 0
-3433 -4273 0
-3434 -4274 0
-3435 -4275 0
-3436 -4276 0
-3437 -4277 0
-3438 -4278 0
-3439 -4279 0
-3440 -4280 0
-3441 -4281 0
-3442 -4282 0
-3443 -4283 0
-3444 -4284 0
-3445 -4285 0
-3446 -4286 0
-3447 -4287 0
-3448 -4288 0
-3449 -4289 0
-3450 -4290 0
-3451 -4291 0
-3452 -4292 0
-3453 -4293 0
-3454 -4294 0
-3455 -4295 0
-3456 -4296 0
-3457 -4297 0
-3458 -4298 0
-3459 -4299 0
-3460 -4300 0
-3461 -4301 0
-3462 -4302 0
-3463 -4303 0
-3464 -4304 0
-3465 -4305 0
-3466 -4306 0
-3467 -4307 0
-3468 -4308 0
-3469 -4309 0
-3470 -4310 0
-3471 -4311 0
-3472 -4312 0
-3473 -4313 0
-3474 -4314 0
-3475 -4315 0
-3476 -4316 0
-3477 -4317 0
-3478 -4318 0
-3479 -4319 0
-3480 -4320 0
-3481 -841 0
-3482 -842 0
-3483 -843 0
-3484 -844 0
-3485 -845 0
-3486 -846 0
-3487 -847 0
-3488 -848 0
-3489 -849 0
-3490 -850 0
-3491 -851 0
-3492 -852 0
-3493 -853 0
-3494 -854 0
-3495 -855 0
-3496 -856 0
-3497 -857 0
-3498 -858 0
-3499 -859 0
-3500 -860 0
-3501 -861 0
-3502 -862 0
-3503 -863 0
-3504 -864 0
-3505 -865 0
-3506 -866 0
-3507 -867 0
-3508 -868 0
-3509 -869 0
-3510 -870 0
-3511 -871 0
-3512 -872 0
-3513 -873 0
-3514 -874 0
-3515 -875 0
-3516 -876 0
-3517 -877 0
-3518 -878 0
-3519 -879 0
-3520 -880 0
-3521 -881 0
-3522 -882 0
-3523 -883 0
-3524 -884 0
-3525 -885 0
-3526 -886 0
-3527 -887 0
-3528 -888 0
-3529 -889 0
-3530 -890 0
-3531 -891 0
-3532 -892 0
-3533 -893 0
-3534 -894 0
-3535 -895 0
-3536 -896 0
-3537 -897 0
-3538 -898 0
-3539 -899 0
-3540 -900 0
-3481 -1501 0
-3482 -1502 0
-3483 -1503 0
-3484 -1504 0
-3485 -1505 0
-3486 -1506 0
-3487 -1507 0
-3488 -1508 0
-3489 -1509 0
-3490 -1510 0
-3491 -1511 0
-3492 -1512 0
-3493 -1513 0
-3494 -1514 0
-3495 -1515 0
-3496 -1516 0
-3497 -1517 0
-3498 -1518 0
-3499 -1519 0
-3500 -1520 0
-3501 -1521 0
-3502 -1522 0
-3503 -1523 0
-3504 -1524 0
-3505 -1525 0
-3506 -1526 0
-3507 -1527 0
-3508 -1528 0
-3509 -1529 0
-3510 -1530 0
-3511 -1531 0
-3512 -1532 0
-3513 -1533 0
-3514 -1534 0
-3515 -1535 0
-3516 -1536 0
-3517 -1537 0
-3518 -1538 0
-3519 -1539 0
-3520 -1540 0
-3521 -1541 0
-3522 -1542 0
-3523 -1543 0
-3524 -1544 0
-3525 -1545 0
-3526 -1546 0
-3527 -1547 0
-3528 -1548 0
-3529 -1549 0
-3530 -1550 0
-3531 -1551 0
-3532 -1552 0
-3533 -1553 0
-3534 -1554 0
-3535 -1555 0
-3536 -1556 0
-3537 -1557 0
-3538 -1558 0
-3539 -1559 0
-3540 -1560 0
-3481 -1621 0
-3482 -1622 0
-3483 -1623 0
-3484 -1624 0
-3485 -1625 0
-3486 -1626 0
-3487 -1627 0
-3488 -1628 0
-3489 -1629 0
-3490 -1630 0
-3491 -1631 0
-3492 -1632 0
-3493 -1633 0
-3494 -1634 0
-3495 -1635 0
-3496 -1636 0
-3497 -1637 0
-3498 -1638 0
-3499 -1639 0
-3500 -1640 0
-3501 -1641 0
-3502 -1642 0
-3503 -1643 0
-3504 -1644 0
-3505 -1645 0
-3506 -1646 0
-3507 -1647 0
-3508 -1648 0
-3509 -1649 0
-3510 -1650 0
-3511 -1651 0
-3512 -1652 0
-3513 -1653 0
-3514 -1654 0
-3515 -1655 0
-3516 -1656 0
-3517 -1657 0
-3518 -1658 0
-3519 -1659 0
-3520 -1660 0
-3521 -1661 0
-3522 -1662 0
-3523 -1663 0
-3524 -1664 0
-3525 -1665 0
-3526 -1666 0
-3527 -1667 0
-3528 -1668 0
-3529 -1669 0
-3530 -1670 0
-3531 -1671 0
-3532 -1672 0
-3533 -1673 0
-3534 -1674 0
-3535 -1675 0
-3536 -1676 0
-3537 -1677 0
-3538 -1678 0
-3539 -1679 0
-3540 -1680 0
-3481 -1681 0
-3482 -1682 0
-3483 -1683 0
-3484 -1684 0
-3485 -1685 0
-3486 -1686 0
-3487 -1687 0
-3488 -1688 0
-3489 -1689 0
-3490 -1690 0
-3491 -1691 0
-3492 -1692 0
-3493 -1693 0
-3494 -1694 0
-3495 -1695 0
-3496 -1696 0
-3497 -1697 0
-3498 -1698 0
-3499 -1699 0
-3500 -1700 0
-3501 -1701 0
-3502 -1702 0
-3503 -1703 0
-3504 -1704 0
-3505 -1705 0
-3506 -1706 0
-3507 -1707 0
-3508 -1708 0
-3509 -1709 0
-3510 -1710 0
-3511 -1711 0
-3512 -1712 0
-3513 -1713 0
-3514 -1714 0
-3515 -1715 0
-3516 -1716 0
-3517 -1717 0
-3518 -1718 0
-3519 -1719 0
-3520 -1720 0
-3521 -1721 0
-3522 -1722 0
-3523 -1723 0
-3524 -1724 0
-3525 -1725 0
-3526 -1726 0
-3527 -1727 0
-3528 -1728 0
-3529 -1729 0
-3530 -1730 0
-3531 -1731 0
-3532 -1732 0
-3533 -1733 0
-3534 -1734 0
-3535 -1735 0
-3536 -1736 0
-3537 -1737 0
-3538 -1738 0
-3539 -1739 0
-3540 -1740 0
-3481 -1741 0
-3482 -1742 0
-3483 -1743 0
-3484 -1744 0
-3485 -1745 0
-3486 -1746 0
-3487 -1747 0
-3488 -1748 0
-3489 -1749 0
-3490 -1750 0
-3491 -1751 0
-3492 -1752 0
-3493 -1753 0
-3494 -1754 0
-3495 -1755 0
-3496 -1756 0
-3497 -1757 0
-3498 -1758 0
-3499 -1759 0
-3500 -1760 0
-3501 -1761 0
-3502 -1762 0
-3503 -1763 0
-3504 -1764 0
-3505 -1765 0
-3506 -1766 0
-3507 -1767 0
-3508 -1768 0
-3509 -1769 0
-3510 -1770 0
-3511 -1771 0
-3512 -1772 0
-3513 -1773 0
-3514 -1774 0
-3515 -1775 0
-3516 -1776 0
-3517 -1777 0
-3518 -1778 0
-3519 -1779 0
-3520 -1780 0
-3521 -1781 0
-3522 -1782 0
-3523 -1783 0
-3524 -1784 0
-3525 -1785 0
-3526 -1786 0
-3527 -1787 0
-3528 -1788 0
-3529 -1789 0
-3530 -1790 0
-3531 -1791 0
-3532 -1792 0
-3533 -1793 0
-3534 -1794 0
-3535 -1795 0
-3536 -1796 0
-3537 -1797 0
-3538 -1798 0
-3539 -1799 0
-3540 -1800 0
-3481 -1921 0
-3482 -1922 0
-3483 -1923 0
-3484 -1924 0
-3485 -1925 0
-3486 -1926 0
-3487 -1927 0
-3488 -1928 0
-3489 -1929 0
-3490 -1930 0
-3491 -1931 0
-3492 -1932 0
-3493 -1933 0
-3494 -1934 0
-3495 -1935 0
-3496 -1936 0
-3497 -1937 0
-3498 -1938 0
-3499 -1939 0
-3500 -1940 0
-3501 -1941 0
-3502 -1942 0
-3503 -1943 0
-3504 -1944 0
-3505 -1945 0
-3506 -1946 0
-3507 -1947 0
-3508 -1948 0
-3509 -1949 0
-3510 -1950 0
-3511 -1951 0
-3512 -1952 0
-3513 -1953 0
-3514 -1954 0
-3515 -1955 0
-3516 -1956 0
-3517 -1957 0
-3518 -1958 0
-3519 -1959 0
-3520 -1960 0
-3521 -1961 0
-3522 -1962 0
-3523 -1963 0
-3524 -1964 0
-3525 -1965 0
-3526 -1966 0
-3527 -1967 0
-3528 -1968 0
-3529 -1969 0
-3530 -1970 0
-3531 -1971 0
-3532 -1972 0
-3533 -1973 0
-3534 -1974 0
-3535 -1975 0
-3536 -1976 0
-3537 -1977 0
-3538 -1978 0
-3539 -1979 0
-3540 -1980 0
-3481 -2161 0
-3482 -2162 0
-3483 -2163 0
-3484 -2164 0
-3485 -2165 0
-3486 -2166 0
-3487 -2167 0
-3488 -2168 0
-3489 -2169 0
-3490 -2170 0
-3491 -2171 0
-3492 -2172 0
-3493 -2173 0
-3494 -2174 0
-3495 -2175 0
-3496 -2176 0
-3497 -2177 0
-3498 -2178 0
-3499 -2179 0
-3500 -2180 0
-3501 -2181 0
-3502 -2182 0
-3503 -2183 0
-3504 -2184 0
-3505 -2185 0
-3506 -2186 0
-3507 -2187 0
-3508 -2188 0
-3509 -2189 0
-3510 -2190 0
-3511 -2191 0
-3512 -2192 0
-3513 -2193 0
-3514 -2194 0
-3515 -2195 0
-3516 -2196 0
-3517 -2197 0
-3518 -2198 0
-3519 -2199 0
-3520 -2200 0
-3521 -2201 0
-3522 -2202 0
-3523 -2203 0
-3524 -2204 0
-3525 -2205 0
-3526 -2206 0
-3527 -2207 0
-3528 -2208 0
-3529 -2209 0
-3530 -2210 0
-3531 -2211 0
-3532 -2212 0
-3533 -2213 0
-3534 -2214 0
-3535 -2215 0
-3536 -2216 0
-3537 -2217 0
-3538 -2218 0
-3539 -2219 0
-3540 -2220 0
-3481 -2581 0
-3482 -2582 0
-3483 -2583 0
-3484 -2584 0
-3485 -2585 0
-3486 -2586 0
-3487 -2587 0
-3488 -2588 0
-3489 -2589 0
-3490 -2590 0
-3491 -2591 0
-3492 -2592 0
-3493 -2593 0
-3494 -2594 0
-3495 -2595 0
-3496 -2596 0
-3497 -2597 0
-3498 -2598 0
-3499 -2599 0
-3500 -2600 0
-3501 -2601 0
-3502 -2602 0
-3503 -2603 0
-3504 -2604 0
-3505 -2605 0
-3506 -2606 0
-3507 -2607 0
-3508 -2608 0
-3509 -2609 0
-3510 -2610 0
-3511 -2611 0
-3512 -2612 0
-3513 -2613 0
-3514 -2614 0
-3515 -2615 0
-3516 -2616 0
-3517 -2617 0
-3518 -2618 0
-3519 -2619 0
-3520 -2620 0
-3521 -2621 0
-3522 -2622 0
-3523 -2623 0
-3524 -2624 0
-3525 -2625 0
-3526 -2626 0
-3527 -2627 0
-3528 -2628 0
-3529 -2629 0
-3530 -2630 0
-3531 -2631 0
-3532 -2632 0
-3533 -2633 0
-3534 -2634 0
-3535 -2635 0
-3536 -2636 0
-3537 -2637 0
-3538 -2638 0
-3539 -2639 0
-3540 -2640 0
-3481 -3361 0
-3482 -3362 0
-3483 -3363 0
-3484 -3364 0
-3485 -3365 0
-3486 -3366 0
-3487 -3367 0
-3488 -3368 0
-3489 -3369 0
-3490 -3370 0
-3491 -3371 0
-3492 -3372 0
-3493 -3373 0
-3494 -3374 0
-3495 -3375 0
-3496 -3376 0
-3497 -3377 0
-3498 -3378 0
-3499 -3379 0
-3500 -3380 0
-3501 -3381 0
-3502 -3382 0
-3503 -3383 0
-3504 -3384 0
-3505 -3385 0
-3506 -3386 0
-3507 -3387 0
-3508 -3388 0
-3509 -3389 0
-3510 -3390 0
-3511 -3391 0
-3512 -3392 0
-3513 -3393 0
-3514 -3394 0
-3515 -3395 0
-3516 -3396 0
-3517 -3397 0
-3518 -3398 0
-3519 -3399 0
-3520 -3400 0
-3521 -3401 0
-3522 -3402 0
-3523 -3403 0
-3524 -3404 0
-3525 -3405 0
-3526 -3406 0
-3527 -3407 0
-3528 -3408 0
-3529 -3409 0
-3530 -3410 0
-3531 -3411 0
-3532 -3412 0
-3533 -3413 0
-3534 -3414 0
-3535 -3415 0
-3536 -3416 0
-3537 -3417 0
-3538 -3418 0
-3539 -3419 0
-3540 -3420 0
-3481 -3781 0
-3482 -3782 0
-3483 -3783 0
-3484 -3784 0
-3485 -3785 0
-3486 -3786 0
-3487 -3787 0
-3488 -3788 0
-3489 -3789 0
-3490 -3790 0
-3491 -3791 0
-3492 -3792 0
-3493 -3793 0
-3494 -3794 0
-3495 -3795 0
-3496 -3796 0
-3497 -3797 0
-3498 -3798 0
-3499 -3799 0
-3500 -3800 0
-3501 -3801 0
-3502 -3802 0
-3503 -3803 0
-3504 -3804 0
-3505 -3805 0
-3506 -3806 0
-3507 -3807 0
-3508 -3808 0
-3509 -3809 0
-3510 -3810 0
-3511 -3811 0
-3512 -3812 0
-3513 -3813 0
-3514 -3814 0
-3515 -3815 0
-3516 -3816 0
-3517 -3817 0
-3518 -3818 0
-3519 -3819 0
-3520 -3820 0
-3521 -3821 0
-3522 -3822 0
-3523 -3823 0
-3524 -3824 0
-3525 -3825 0
-3526 -3826 0
-3527 -3827 0
-3528 -3828 0
-3529 -3829 0
-3530 -3830 0
-3531 -3831 0
-3532 -3832 0
-3533 -3833 0
-3534 -3834 0
-3535 -3835 0
-3536 -3836 0
-3537 -3837 0
-3538 -3838 0
-3539 -3839 0
-3540 -3840 0
-3481 -4561 0
-3482 -4562 0
-3483 -4563 0
-3484 -4564 0
-3485 -4565 0
-3486 -4566 0
-3487 -4567 0
-3488 -4568 0
-3489 -4569 0
-3490 -4570 0
-3491 -4571 0
-3492 -4572 0
-3493 -4573 0
-3494 -4574 0
-3495 -4575 0
-3496 -4576 0
-3497 -4577 0
-3498 -4578 0
-3499 -4579 0
-3500 -4580 0
-3501 -4581 0
-3502 -4582 0
-3503 -4583 0
-3504 -4584 0
-3505 -4585 0
-3506 -4586 0
-3507 -4587 0
-3508 -4588 0
-3509 -4589 0
-3510 -4590 0
-3511 -4591 0
-3512 -4592 0
-3513 -4593 0
-3514 -4594 0
-3515 -4595 0
-3516 -4596 0
-3517 -4597 0
-3518 -4598 0
-3519 -4599 0
-3520 -4600 0
-3521 -4601 0
-3522 -4602 0
-3523 -4603 0
-3524 -4604 0
-3525 -4605 0
-3526 -4606 0
-3527 -4607 0
-3528 -4608 0
-3529 -4609 0
-3530 -4610 0
-3531 -4611 0
-3532 -4612 0
-3533 -4613 0
-3534 -4614 0
-3535 -4615 0
-3536 -4616 0
-3537 -4617 0
-3538 -4618 0
-3539 -4619 0
-3540 -4620 0
-3541 -121 0
-3542 -122 0
-3543 -123 0
-3544 -124 0
-3545 -125 0
-3546 -126 0
-3547 -127 0
-3548 -128 0
-3549 -129 0
-3550 -130 0
-3551 -131 0
-3552 -132 0
-3553 -133 0
-3554 -134 0
-3555 -135 0
-3556 -136 0
-3557 -137 0
-3558 -138 0
-3559 -139 0
-3560 -140 0
-3561 -141 0
-3562 -142 0
-3563 -143 0
-3564 -144 0
-3565 -145 0
-3566 -146 0
-3567 -147 0
-3568 -148 0
-3569 -149 0
-3570 -150 0
-3571 -151 0
-3572 -152 0
-3573 -153 0
-3574 -154 0
-3575 -155 0
-3576 -156 0
-3577 -157 0
-3578 -158 0
-3579 -159 0
-3580 -160 0
-3581 -161 0
-3582 -162 0
-3583 -163 0
-3584 -164 0
-3585 -165 0
-3586 -166 0
-3587 -167 0
-3588 -168 0
-3589 -169 0
-3590 -170 0
-3591 -171 0
-3592 -172 0
-3593 -173 0
-3594 -174 0
-3595 -175 0
-3596 -176 0
-3597 -177 0
-3598 -178 0
-3599 -179 0
-3600 -180 0
-3541 -2161 0
-3542 -2162 0
-3543 -2163 0
-3544 -2164 0
-3545 -2165 0
-3546 -2166 0
-3547 -2167 0
-3548 -2168 0
-3549 -2169 0
-3550 -2170 0
-3551 -2171 0
-3552 -2172 0
-3553 -2173 0
-3554 -2174 0
-3555 -2175 0
-3556 -2176 0
-3557 -2177 0
-3558 -2178 0
-3559 -2179 0
-3560 -2180 0
-3561 -2181 0
-3562 -2182 0
-3563 -2183 0
-3564 -2184 0
-3565 -2185 0
-3566 -2186 0
-3567 -2187 0
-3568 -2188 0
-3569 -2189 0
-3570 -2190 0
-3571 -2191 0
-3572 -2192 0
-3573 -2193 0
-3574 -2194 0
-3575 -2195 0
-3576 -2196 0
-3577 -2197 0
-3578 -2198 0
-3579 -2199 0
-3580 -2200 0
-3581 -2201 0
-3582 -2202 0
-3583 -2203 0
-3584 -2204 0
-3585 -2205 0
-3586 -2206 0
-3587 -2207 0
-3588 -2208 0
-3589 -2209 0
-3590 -2210 0
-3591 -2211 0
-3592 -2212 0
-3593 -2213 0
-3594 -2214 0
-3595 -2215 0
-3596 -2216 0
-3597 -2217 0
-3598 -2218 0
-3599 -2219 0
-3600 -2220 0
-3601 -2161 0
-3602 -2162 0
-3603 -2163 0
-3604 -2164 0
-3605 -2165 0
-3606 -2166 0
-3607 -2167 0
-3608 -2168 0
-3609 -2169 0
-3610 -2170 0
-3611 -2171 0
-3612 -2172 0
-3613 -2173 0
-3614 -2174 0
-3615 -2175 0
-3616 -2176 0
-3617 -2177 0
-3618 -2178 0
-3619 -2179 0
-3620 -2180 0
-3621 -2181 0
-3622 -2182 0
-3623 -2183 0
-3624 -2184 0
-3625 -2185 0
-3626 -2186 0
-3627 -2187 0
-3628 -2188 0
-3629 -2189 0
-3630 -2190 0
-3631 -2191 0
-3632 -2192 0
-3633 -2193 0
-3634 -2194 0
-3635 -2195 0
-3636 -2196 0
-3637 -2197 0
-3638 -2198 0
-3639 -2199 0
-3640 -2200 0
-3641 -2201 0
-3642 -2202 0
-3643 -2203 0
-3644 -2204 0
-3645 -2205 0
-3646 -2206 0
-3647 -2207 0
-3648 -2208 0
-3649 -2209 0
-3650 -2210 0
-3651 -2211 0
-3652 -2212 0
-3653 -2213 0
-3654 -2214 0
-3655 -2215 0
-3656 -2216 0
-3657 -2217 0
-3658 -2218 0
-3659 -2219 0
-3660 -2220 0
-3661 -2161 0
-3662 -2162 0
-3663 -2163 0
-3664 -2164 0
-3665 -2165 0
-3666 -2166 0
-3667 -2167 0
-3668 -2168 0
-3669 -2169 0
-3670 -2170 0
-3671 -2171 0
-3672 -2172 0
-3673 -2173 0
-3674 -2174 0
-3675 -2175 0
-3676 -2176 0
-3677 -2177 0
-3678 -2178 0
-3679 -2179 0
-3680 -2180 0
-3681 -2181 0
-3682 -2182 0
-3683 -2183 0
-3684 -2184 0
-3685 -2185 0
-3686 -2186 0
-3687 -2187 0
-3688 -2188 0
-3689 -2189 0
-3690 -2190 0
-3691 -2191 0
-3692 -2192 0
-3693 -2193 0
-3694 -2194 0
-3695 -2195 0
-3696 -2196 0
-3697 -2197 0
-3698 -2198 0
-3699 -2199 0
-3700 -2200 0
-3701 -2201 0
-3702 -2202 0
-3703 -2203 0
-3704 -2204 0
-3705 -2205 0
-3706 -2206 0
-3707 -2207 0
-3708 -2208 0
-3709 -2209 0
-3710 -2210 0
-3711 -2211 0
-3712 -2212 0
-3713 -2213 0
-3714 -2214 0
-3715 -2215 0
-3716 -2216 0
-3717 -2217 0
-3718 -2218 0
-3719 -2219 0
-3720 -2220 0
-3721 -121 0
-3722 -122 0
-3723 -123 0
-3724 -124 0
-3725 -125 0
-3726 -126 0
-3727 -127 0
-3728 -128 0
-3729 -129 0
-3730 -130 0
-3731 -131 0
-3732 -132 0
-3733 -133 0
-3734 -134 0
-3735 -135 0
-3736 -136 0
-3737 -137 0
-3738 -138 0
-3739 -139 0
-3740 -140 0
-3741 -141 0
-3742 -142 0
-3743 -143 0
-3744 -144 0
-3745 -145 0
-3746 -146 0
-3747 -147 0
-3748 -148 0
-3749 -149 0
-3750 -150 0
-3751 -151 0
-3752 -152 0
-3753 -153 0
-3754 -154 0
-3755 -155 0
-3756 -156 0
-3757 -157 0
-3758 -158 0
-3759 -159 0
-3760 -160 0
-3761 -161 0
-3762 -162 0
-3763 -163 0
-3764 -164 0
-3765 -165 0
-3766 -166 0
-3767 -167 0
-3768 -168 0
-3769 -169 0
-3770 -170 0
-3771 -171 0
-3772 -172 0
-3773 -173 0
-3774 -174 0
-3775 -175 0
-3776 -176 0
-3777 -177 0
-3778 -178 0
-3779 -179 0
-3780 -180 0
-3721 -1441 0
-3722 -1442 0
-3723 -1443 0
-3724 -1444 0
-3725 -1445 0
-3726 -1446 0
-3727 -1447 0
-3728 -1448 0
-3729 -1449 0
-3730 -1450 0
-3731 -1451 0
-3732 -1452 0
-3733 -1453 0
-3734 -1454 0
-3735 -1455 0
-3736 -1456 0
-3737 -1457 0
-3738 -1458 0
-3739 -1459 0
-3740 -1460 0
-3741 -1461 0
-3742 -1462 0
-3743 -1463 0
-3744 -1464 0
-3745 -1465 0
-3746 -1466 0
-3747 -1467 0
-3748 -1468 0
-3749 -1469 0
-3750 -1470 0
-3751 -1471 0
-3752 -1472 0
-3753 -1473 0
-3754 -1474 0
-3755 -1475 0
-3756 -1476 0
-3757 -1477 0
-3758 -1478 0
-3759 -1479 0
-3760 -1480 0
-3761 -1481 0
-3762 -1482 0
-3763 -1483 0
-3764 -1484 0
-3765 -1485 0
-3766 -1486 0
-3767 -1487 0
-3768 -1488 0
-3769 -1489 0
-3770 -1490 0
-3771 -1491 0
-3772 -1492 0
-3773 -1493 0
-3774 -1494 0
-3775 -1495 0
-3776 -1496 0
-3777 -1497 0
-3778 -1498 0
-3779 -1499 0
-3780 -1500 0
-3721 -1561 0
-3722 -1562 0
-3723 -1563 0
-3724 -1564 0
-3725 -1565 0
-3726 -1566 0
-3727 -1567 0
-3728 -1568 0
-3729 -1569 0
-3730 -1570 0
-3731 -1571 0
-3732 -1572 0
-3733 -1573 0
-3734 -1574 0
-3735 -1575 0
-3736 -1576 0
-3737 -1577 0
-3738 -1578 0
-3739 -1579 0
-3740 -1580 0
-3741 -1581 0
-3742 -1582 0
-3743 -1583 0
-3744 -1584 0
-3745 -1585 0
-3746 -1586 0
-3747 -1587 0
-3748 -1588 0
-3749 -1589 0
-3750 -1590 0
-3751 -1591 0
-3752 -1592 0
-3753 -1593 0
-3754 -1594 0
-3755 -1595 0
-3756 -1596 0
-3757 -1597 0
-3758 -1598 0
-3759 -1599 0
-3760 -1600 0
-3761 -1601 0
-3762 -1602 0
-3763 -1603 0
-3764 -1604 0
-3765 -1605 0
-3766 -1606 0
-3767 -1607 0
-3768 -1608 0
-3769 -1609 0
-3770 -1610 0
-3771 -1611 0
-3772 -1612 0
-3773 -1613 0
-3774 -1614 0
-3775 -1615 0
-3776 -1616 0
-3777 -1617 0
-3778 -1618 0
-3779 -1619 0
-3780 -1620 0
-3721 -1921 0
-3722 -1922 0
-3723 -1923 0
-3724 -1924 0
-3725 -1925 0
-3726 -1926 0
-3727 -1927 0
-3728 -1928 0
-3729 -1929 0
-3730 -1930 0
-3731 -1931 0
-3732 -1932 0
-3733 -1933 0
-3734 -1934 0
-3735 -1935 0
-3736 -1936 0
-3737 -1937 0
-3738 -1938 0
-3739 -1939 0
-3740 -1940 0
-3741 -1941 0
-3742 -1942 0
-3743 -1943 0
-3744 -1944 0
-3745 -1945 0
-3746 -1946 0
-3747 -1947 0
-3748 -1948 0
-3749 -1949 0
-3750 -1950 0
-3751 -1951 0
-3752 -1952 0
-3753 -1953 0
-3754 -1954 0
-3755 -1955 0
-3756 -1956 0
-3757 -1957 0
-3758 -1958 0
-3759 -1959 0
-3760 -1960 0
-3761 -1961 0
-3762 -1962 0
-3763 -1963 0
-3764 -1964 0
-3765 -1965 0
-3766 -1966 0
-3767 -1967 0
-3768 -1968 0
-3769 -1969 0
-3770 -1970 0
-3771 -1971 0
-3772 -1972 0
-3773 -1973 0
-3774 -1974 0
-3775 -1975 0
-3776 -1976 0
-3777 -1977 0
-3778 -1978 0
-3779 -1979 0
-3780 -1980 0
-3721 -2341 0
-3722 -2342 0
-3723 -2343 0
-3724 -2344 0
-3725 -2345 0
-3726 -2346 0
-3727 -2347 0
-3728 -2348 0
-3729 -2349 0
-3730 -2350 0
-3731 -2351 0
-3732 -2352 0
-3733 -2353 0
-3734 -2354 0
-3735 -2355 0
-3736 -2356 0
-3737 -2357 0
-3738 -2358 0
-3739 -2359 0
-3740 -2360 0
-3741 -2361 0
-3742 -2362 0
-3743 -2363 0
-3744 -2364 0
-3745 -2365 0
-3746 -2366 0
-3747 -2367 0
-3748 -2368 0
-3749 -2369 0
-3750 -2370 0
-3751 -2371 0
-3752 -2372 0
-3753 -2373 0
-3754 -2374 0
-3755 -2375 0
-3756 -2376 0
-3757 -2377 0
-3758 -2378 0
-3759 -2379 0
-3760 -2380 0
-3761 -2381 0
-3762 -2382 0
-3763 -2383 0
-3764 -2384 0
-3765 -2385 0
-3766 -2386 0
-3767 -2387 0
-3768 -2388 0
-3769 -2389 0
-3770 -2390 0
-3771 -2391 0
-3772 -2392 0
-3773 -2393 0
-3774 -2394 0
-3775 -2395 0
-3776 -2396 0
-3777 -2397 0
-3778 -2398 0
-3779 -2399 0
-3780 -2400 0
-3721 -4081 0
-3722 -4082 0
-3723 -4083 0
-3724 -4084 0
-3725 -4085 0
-3726 -4086 0
-3727 -4087 0
-3728 -4088 0
-3729 -4089 0
-3730 -4090 0
-3731 -4091 0
-3732 -4092 0
-3733 -4093 0
-3734 -4094 0
-3735 -4095 0
-3736 -4096 0
-3737 -4097 0
-3738 -4098 0
-3739 -4099 0
-3740 -4100 0
-3741 -4101 0
-3742 -4102 0
-3743 -4103 0
-3744 -4104 0
-3745 -4105 0
-3746 -4106 0
-3747 -4107 0
-3748 -4108 0
-3749 -4109 0
-3750 -4110 0
-3751 -4111 0
-3752 -4112 0
-3753 -4113 0
-3754 -4114 0
-3755 -4115 0
-3756 -4116 0
-3757 -4117 0
-3758 -4118 0
-3759 -4119 0
-3760 -4120 0
-3761 -4121 0
-3762 -4122 0
-3763 -4123 0
-3764 -4124 0
-3765 -4125 0
-3766 -4126 0
-3767 -4127 0
-3768 -4128 0
-3769 -4129 0
-3770 -4130 0
-3771 -4131 0
-3772 -4132 0
-3773 -4133 0
-3774 -4134 0
-3775 -4135 0
-3776 -4136 0
-3777 -4137 0
-3778 -4138 0
-3779 -4139 0
-3780 -4140 0
-3721 -4321 0
-3722 -4322 0
-3723 -4323 0
-3724 -4324 0
-3725 -4325 0
-3726 -4326 0
-3727 -4327 0
-3728 -4328 0
-3729 -4329 0
-3730 -4330 0
-3731 -4331 0
-3732 -4332 0
-3733 -4333 0
-3734 -4334 0
-3735 -4335 0
-3736 -4336 0
-3737 -4337 0
-3738 -4338 0
-3739 -4339 0
-3740 -4340 0
-3741 -4341 0
-3742 -4342 0
-3743 -4343 0
-3744 -4344 0
-3745 -4345 0
-3746 -4346 0
-3747 -4347 0
-3748 -4348 0
-3749 -4349 0
-3750 -4350 0
-3751 -4351 0
-3752 -4352 0
-3753 -4353 0
-3754 -4354 0
-3755 -4355 0
-3756 -4356 0
-3757 -4357 0
-3758 -4358 0
-3759 -4359 0
-3760 -4360 0
-3761 -4361 0
-3762 -4362 0
-3763 -4363 0
-3764 -4364 0
-3765 -4365 0
-3766 -4366 0
-3767 -4367 0
-3768 -4368 0
-3769 -4369 0
-3770 -4370 0
-3771 -4371 0
-3772 -4372 0
-3773 -4373 0
-3774 -4374 0
-3775 -4375 0
-3776 -4376 0
-3777 -4377 0
-3778 -4378 0
-3779 -4379 0
-3780 -4380 0
-3781 -1621 0
-3782 -1622 0
-3783 -1623 0
-3784 -1624 0
-3785 -1625 0
-3786 -1626 0
-3787 -1627 0
-3788 -1628 0
-3789 -1629 0
-3790 -1630 0
-3791 -1631 0
-3792 -1632 0
-3793 -1633 0
-3794 -1634 0
-3795 -1635 0
-3796 -1636 0
-3797 -1637 0
-3798 -1638 0
-3799 -1639 0
-3800 -1640 0
-3801 -1641 0
-3802 -1642 0
-3803 -1643 0
-3804 -1644 0
-3805 -1645 0
-3806 -1646 0
-3807 -1647 0
-3808 -1648 0
-3809 -1649 0
-3810 -1650 0
-3811 -1651 0
-3812 -1652 0
-3813 -1653 0
-3814 -1654 0
-3815 -1655 0
-3816 -1656 0
-3817 -1657 0
-3818 -1658 0
-3819 -1659 0
-3820 -1660 0
-3821 -1661 0
-3822 -1662 0
-3823 -1663 0
-3824 -1664 0
-3825 -1665 0
-3826 -1666 0
-3827 -1667 0
-3828 -1668 0
-3829 -1669 0
-3830 -1670 0
-3831 -1671 0
-3832 -1672 0
-3833 -1673 0
-3834 -1674 0
-3835 -1675 0
-3836 -1676 0
-3837 -1677 0
-3838 -1678 0
-3839 -1679 0
-3840 -1680 0
-3781 -2161 0
-3782 -2162 0
-3783 -2163 0
-3784 -2164 0
-3785 -2165 0
-3786 -2166 0
-3787 -2167 0
-3788 -2168 0
-3789 -2169 0
-3790 -2170 0
-3791 -2171 0
-3792 -2172 0
-3793 -2173 0
-3794 -2174 0
-3795 -2175 0
-3796 -2176 0
-3797 -2177 0
-3798 -2178 0
-3799 -2179 0
-3800 -2180 0
-3801 -2181 0
-3802 -2182 0
-3803 -2183 0
-3804 -2184 0
-3805 -2185 0
-3806 -2186 0
-3807 -2187 0
-3808 -2188 0
-3809 -2189 0
-3810 -2190 0
-3811 -2191 0
-3812 -2192 0
-3813 -2193 0
-3814 -2194 0
-3815 -2195 0
-3816 -2196 0
-3817 -2197 0
-3818 -2198 0
-3819 -2199 0
-3820 -2200 0
-3821 -2201 0
-3822 -2202 0
-3823 -2203 0
-3824 -2204 0
-3825 -2205 0
-3826 -2206 0
-3827 -2207 0
-3828 -2208 0
-3829 -2209 0
-3830 -2210 0
-3831 -2211 0
-3832 -2212 0
-3833 -2213 0
-3834 -2214 0
-3835 -2215 0
-3836 -2216 0
-3837 -2217 0
-3838 -2218 0
-3839 -2219 0
-3840 -2220 0
-3781 -3481 0
-3782 -3482 0
-3783 -3483 0
-3784 -3484 0
-3785 -3485 0
-3786 -3486 0
-3787 -3487 0
-3788 -3488 0
-3789 -3489 0
-3790 -3490 0
-3791 -3491 0
-3792 -3492 0
-3793 -3493 0
-3794 -3494 0
-3795 -3495 0
-3796 -3496 0
-3797 -3497 0
-3798 -3498 0
-3799 -3499 0
-3800 -3500 0
-3801 -3501 0
-3802 -3502 0
-3803 -3503 0
-3804 -3504 0
-3805 -3505 0
-3806 -3506 0
-3807 -3507 0
-3808 -3508 0
-3809 -3509 0
-3810 -3510 0
-3811 -3511 0
-3812 -3512 0
-3813 -3513 0
-3814 -3514 0
-3815 -3515 0
-3816 -3516 0
-3817 -3517 0
-3818 -3518 0
-3819 -3519 0
-3820 -3520 0
-3821 -3521 0
-3822 -3522 0
-3823 -3523 0
-3824 -3524 0
-3825 -3525 0
-3826 -3526 0
-3827 -3527 0
-3828 -3528 0
-3829 -3529 0
-3830 -3530 0
-3831 -3531 0
-3832 -3532 0
-3833 -3533 0
-3834 -3534 0
-3835 -3535 0
-3836 -3536 0
-3837 -3537 0
-3838 -3538 0
-3839 -3539 0
-3840 -3540 0
-3841 -781 0
-3842 -782 0
-3843 -783 0
-3844 -784 0
-3845 -785 0
-3846 -786 0
-3847 -787 0
-3848 -788 0
-3849 -789 0
-3850 -790 0
-3851 -791 0
-3852 -792 0
-3853 -793 0
-3854 -794 0
-3855 -795 0
-3856 -796 0
-3857 -797 0
-3858 -798 0
-3859 -799 0
-3860 -800 0
-3861 -801 0
-3862 -802 0
-3863 -803 0
-3864 -804 0
-3865 -805 0
-3866 -806 0
-3867 -807 0
-3868 -808 0
-3869 -809 0
-3870 -810 0
-3871 -811 0
-3872 -812 0
-3873 -813 0
-3874 -814 0
-3875 -815 0
-3876 -816 0
-3877 -817 0
-3878 -818 0
-3879 -819 0
-3880 -820 0
-3881 -821 0
-3882 -822 0
-3883 -823 0
-3884 -824 0
-3885 -825 0
-3886 -826 0
-3887 -827 0
-3888 -828 0
-3889 -829 0
-3890 -830 0
-3891 -831 0
-3892 -832 0
-3893 -833 0
-3894 -834 0
-3895 -835 0
-3896 -836 0
-3897 -837 0
-3898 -838 0
-3899 -839 0
-3900 -840 0
-3901 -181 0
-3902 -182 0
-3903 -183 0
-3904 -184 0
-3905 -185 0
-3906 -186 0
-3907 -187 0
-3908 -188 0
-3909 -189 0
-3910 -190 0
-3911 -191 0
-3912 -192 0
-3913 -193 0
-3914 -194 0
-3915 -195 0
-3916 -196 0
-3917 -197 0
-3918 -198 0
-3919 -199 0
-3920 -200 0
-3921 -201 0
-3922 -202 0
-3923 -203 0
-3924 -204 0
-3925 -205 0
-3926 -206 0
-3927 -207 0
-3928 -208 0
-3929 -209 0
-3930 -210 0
-3931 -211 0
-3932 -212 0
-3933 -213 0
-3934 -214 0
-3935 -215 0
-3936 -216 0
-3937 -217 0
-3938 -218 0
-3939 -219 0
-3940 -220 0
-3941 -221 0
-3942 -222 0
-3943 -223 0
-3944 -224 0
-3945 -225 0
-3946 -226 0
-3947 -227 0
-3948 -228 0
-3949 -229 0
-3950 -230 0
-3951 -231 0
-3952 -232 0
-3953 -233 0
-3954 -234 0
-3955 -235 0
-3956 -236 0
-3957 -237 0
-3958 -238 0
-3959 -239 0
-3960 -240 0
-3901 -361 0
-3902 -362 0
-3903 -363 0
-3904 -364 0
-3905 -365 0
-3906 -366 0
-3907 -367 0
-3908 -368 0
-3909 -369 0
-3910 -370 0
-3911 -371 0
-3912 -372 0
-3913 -373 0
-3914 -374 0
-3915 -375 0
-3916 -376 0
-3917 -377 0
-3918 -378 0
-3919 -379 0
-3920 -380 0
-3921 -381 0
-3922 -382 0
-3923 -383 0
-3924 -384 0
-3925 -385 0
-3926 -386 0
-3927 -387 0
-3928 -388 0
-3929 -389 0
-3930 -390 0
-3931 -391 0
-3932 -392 0
-3933 -393 0
-3934 -394 0
-3935 -395 0
-3936 -396 0
-3937 -397 0
-3938 -398 0
-3939 -399 0
-3940 -400 0
-3941 -401 0
-3942 -402 0
-3943 -403 0
-3944 -404 0
-3945 -405 0
-3946 -406 0
-3947 -407 0
-3948 -408 0
-3949 -409 0
-3950 -410 0
-3951 -411 0
-3952 -412 0
-3953 -413 0
-3954 -414 0
-3955 -415 0
-3956 -416 0
-3957 -417 0
-3958 -418 0
-3959 -419 0
-3960 -420 0
-3901 -481 0
-3902 -482 0
-3903 -483 0
-3904 -484 0
-3905 -485 0
-3906 -486 0
-3907 -487 0
-3908 -488 0
-3909 -489 0
-3910 -490 0
-3911 -491 0
-3912 -492 0
-3913 -493 0
-3914 -494 0
-3915 -495 0
-3916 -496 0
-3917 -497 0
-3918 -498 0
-3919 -499 0
-3920 -500 0
-3921 -501 0
-3922 -502 0
-3923 -503 0
-3924 -504 0
-3925 -505 0
-3926 -506 0
-3927 -507 0
-3928 -508 0
-3929 -509 0
-3930 -510 0
-3931 -511 0
-3932 -512 0
-3933 -513 0
-3934 -514 0
-3935 -515 0
-3936 -516 0
-3937 -517 0
-3938 -518 0
-3939 -519 0
-3940 -520 0
-3941 -521 0
-3942 -522 0
-3943 -523 0
-3944 -524 0
-3945 -525 0
-3946 -526 0
-3947 -527 0
-3948 -528 0
-3949 -529 0
-3950 -530 0
-3951 -531 0
-3952 -532 0
-3953 -533 0
-3954 -534 0
-3955 -535 0
-3956 -536 0
-3957 -537 0
-3958 -538 0
-3959 -539 0
-3960 -540 0
-3901 -841 0
-3902 -842 0
-3903 -843 0
-3904 -844 0
-3905 -845 0
-3906 -846 0
-3907 -847 0
-3908 -848 0
-3909 -849 0
-3910 -850 0
-3911 -851 0
-3912 -852 0
-3913 -853 0
-3914 -854 0
-3915 -855 0
-3916 -856 0
-3917 -857 0
-3918 -858 0
-3919 -859 0
-3920 -860 0
-3921 -861 0
-3922 -862 0
-3923 -863 0
-3924 -864 0
-3925 -865 0
-3926 -866 0
-3927 -867 0
-3928 -868 0
-3929 -869 0
-3930 -870 0
-3931 -871 0
-3932 -872 0
-3933 -873 0
-3934 -874 0
-3935 -875 0
-3936 -876 0
-3937 -877 0
-3938 -878 0
-3939 -879 0
-3940 -880 0
-3941 -881 0
-3942 -882 0
-3943 -883 0
-3944 -884 0
-3945 -885 0
-3946 -886 0
-3947 -887 0
-3948 -888 0
-3949 -889 0
-3950 -890 0
-3951 -891 0
-3952 -892 0
-3953 -893 0
-3954 -894 0
-3955 -895 0
-3956 -896 0
-3957 -897 0
-3958 -898 0
-3959 -899 0
-3960 -900 0
-3901 -1081 0
-3902 -1082 0
-3903 -1083 0
-3904 -1084 0
-3905 -1085 0
-3906 -1086 0
-3907 -1087 0
-3908 -1088 0
-3909 -1089 0
-3910 -1090 0
-3911 -1091 0
-3912 -1092 0
-3913 -1093 0
-3914 -1094 0
-3915 -1095 0
-3916 -1096 0
-3917 -1097 0
-3918 -1098 0
-3919 -1099 0
-3920 -1100 0
-3921 -1101 0
-3922 -1102 0
-3923 -1103 0
-3924 -1104 0
-3925 -1105 0
-3926 -1106 0
-3927 -1107 0
-3928 -1108 0
-3929 -1109 0
-3930 -1110 0
-3931 -1111 0
-3932 -1112 0
-3933 -1113 0
-3934 -1114 0
-3935 -1115 0
-3936 -1116 0
-3937 -1117 0
-3938 -1118 0
-3939 -1119 0
-3940 -1120 0
-3941 -1121 0
-3942 -1122 0
-3943 -1123 0
-3944 -1124 0
-3945 -1125 0
-3946 -1126 0
-3947 -1127 0
-3948 -1128 0
-3949 -1129 0
-3950 -1130 0
-3951 -1131 0
-3952 -1132 0
-3953 -1133 0
-3954 -1134 0
-3955 -1135 0
-3956 -1136 0
-3957 -1137 0
-3958 -1138 0
-3959 -1139 0
-3960 -1140 0
-3901 -1981 0
-3902 -1982 0
-3903 -1983 0
-3904 -1984 0
-3905 -1985 0
-3906 -1986 0
-3907 -1987 0
-3908 -1988 0
-3909 -1989 0
-3910 -1990 0
-3911 -1991 0
-3912 -1992 0
-3913 -1993 0
-3914 -1994 0
-3915 -1995 0
-3916 -1996 0
-3917 -1997 0
-3918 -1998 0
-3919 -1999 0
-3920 -2000 0
-3921 -2001 0
-3922 -2002 0
-3923 -2003 0
-3924 -2004 0
-3925 -2005 0
-3926 -2006 0
-3927 -2007 0
-3928 -2008 0
-3929 -2009 0
-3930 -2010 0
-3931 -2011 0
-3932 -2012 0
-3933 -2013 0
-3934 -2014 0
-3935 -2015 0
-3936 -2016 0
-3937 -2017 0
-3938 -2018 0
-3939 -2019 0
-3940 -2020 0
-3941 -2021 0
-3942 -2022 0
-3943 -2023 0
-3944 -2024 0
-3945 -2025 0
-3946 -2026 0
-3947 -2027 0
-3948 -2028 0
-3949 -2029 0
-3950 -2030 0
-3951 -2031 0
-3952 -2032 0
-3953 -2033 0
-3954 -2034 0
-3955 -2035 0
-3956 -2036 0
-3957 -2037 0
-3958 -2038 0
-3959 -2039 0
-3960 -2040 0
-3901 -2161 0
-3902 -2162 0
-3903 -2163 0
-3904 -2164 0
-3905 -2165 0
-3906 -2166 0
-3907 -2167 0
-3908 -2168 0
-3909 -2169 0
-3910 -2170 0
-3911 -2171 0
-3912 -2172 0
-3913 -2173 0
-3914 -2174 0
-3915 -2175 0
-3916 -2176 0
-3917 -2177 0
-3918 -2178 0
-3919 -2179 0
-3920 -2180 0
-3921 -2181 0
-3922 -2182 0
-3923 -2183 0
-3924 -2184 0
-3925 -2185 0
-3926 -2186 0
-3927 -2187 0
-3928 -2188 0
-3929 -2189 0
-3930 -2190 0
-3931 -2191 0
-3932 -2192 0
-3933 -2193 0
-3934 -2194 0
-3935 -2195 0
-3936 -2196 0
-3937 -2197 0
-3938 -2198 0
-3939 -2199 0
-3940 -2200 0
-3941 -2201 0
-3942 -2202 0
-3943 -2203 0
-3944 -2204 0
-3945 -2205 0
-3946 -2206 0
-3947 -2207 0
-3948 -2208 0
-3949 -2209 0
-3950 -2210 0
-3951 -2211 0
-3952 -2212 0
-3953 -2213 0
-3954 -2214 0
-3955 -2215 0
-3956 -2216 0
-3957 -2217 0
-3958 -2218 0
-3959 -2219 0
-3960 -2220 0
-3901 -2221 0
-3902 -2222 0
-3903 -2223 0
-3904 -2224 0
-3905 -2225 0
-3906 -2226 0
-3907 -2227 0
-3908 -2228 0
-3909 -2229 0
-3910 -2230 0
-3911 -2231 0
-3912 -2232 0
-3913 -2233 0
-3914 -2234 0
-3915 -2235 0
-3916 -2236 0
-3917 -2237 0
-3918 -2238 0
-3919 -2239 0
-3920 -2240 0
-3921 -2241 0
-3922 -2242 0
-3923 -2243 0
-3924 -2244 0
-3925 -2245 0
-3926 -2246 0
-3927 -2247 0
-3928 -2248 0
-3929 -2249 0
-3930 -2250 0
-3931 -2251 0
-3932 -2252 0
-3933 -2253 0
-3934 -2254 0
-3935 -2255 0
-3936 -2256 0
-3937 -2257 0
-3938 -2258 0
-3939 -2259 0
-3940 -2260 0
-3941 -2261 0
-3942 -2262 0
-3943 -2263 0
-3944 -2264 0
-3945 -2265 0
-3946 -2266 0
-3947 -2267 0
-3948 -2268 0
-3949 -2269 0
-3950 -2270 0
-3951 -2271 0
-3952 -2272 0
-3953 -2273 0
-3954 -2274 0
-3955 -2275 0
-3956 -2276 0
-3957 -2277 0
-3958 -2278 0
-3959 -2279 0
-3960 -2280 0
-3901 -2761 0
-3902 -2762 0
-3903 -2763 0
-3904 -2764 0
-3905 -2765 0
-3906 -2766 0
-3907 -2767 0
-3908 -2768 0
-3909 -2769 0
-3910 -2770 0
-3911 -2771 0
-3912 -2772 0
-3913 -2773 0
-3914 -2774 0
-3915 -2775 0
-3916 -2776 0
-3917 -2777 0
-3918 -2778 0
-3919 -2779 0
-3920 -2780 0
-3921 -2781 0
-3922 -2782 0
-3923 -2783 0
-3924 -2784 0
-3925 -2785 0
-3926 -2786 0
-3927 -2787 0
-3928 -2788 0
-3929 -2789 0
-3930 -2790 0
-3931 -2791 0
-3932 -2792 0
-3933 -2793 0
-3934 -2794 0
-3935 -2795 0
-3936 -2796 0
-3937 -2797 0
-3938 -2798 0
-3939 -2799 0
-3940 -2800 0
-3941 -2801 0
-3942 -2802 0
-3943 -2803 0
-3944 -2804 0
-3945 -2805 0
-3946 -2806 0
-3947 -2807 0
-3948 -2808 0
-3949 -2809 0
-3950 -2810 0
-3951 -2811 0
-3952 -2812 0
-3953 -2813 0
-3954 -2814 0
-3955 -2815 0
-3956 -2816 0
-3957 -2817 0
-3958 -2818 0
-3959 -2819 0
-3960 -2820 0
-3901 -2941 0
-3902 -2942 0
-3903 -2943 0
-3904 -2944 0
-3905 -2945 0
-3906 -2946 0
-3907 -2947 0
-3908 -2948 0
-3909 -2949 0
-3910 -2950 0
-3911 -2951 0
-3912 -2952 0
-3913 -2953 0
-3914 -2954 0
-3915 -2955 0
-3916 -2956 0
-3917 -2957 0
-3918 -2958 0
-3919 -2959 0
-3920 -2960 0
-3921 -2961 0
-3922 -2962 0
-3923 -2963 0
-3924 -2964 0
-3925 -2965 0
-3926 -2966 0
-3927 -2967 0
-3928 -2968 0
-3929 -2969 0
-3930 -2970 0
-3931 -2971 0
-3932 -2972 0
-3933 -2973 0
-3934 -2974 0
-3935 -2975 0
-3936 -2976 0
-3937 -2977 0
-3938 -2978 0
-3939 -2979 0
-3940 -2980 0
-3941 -2981 0
-3942 -2982 0
-3943 -2983 0
-3944 -2984 0
-3945 -2985 0
-3946 -2986 0
-3947 -2987 0
-3948 -2988 0
-3949 -2989 0
-3950 -2990 0
-3951 -2991 0
-3952 -2992 0
-3953 -2993 0
-3954 -2994 0
-3955 -2995 0
-3956 -2996 0
-3957 -2997 0
-3958 -2998 0
-3959 -2999 0
-3960 -3000 0
-3901 -4021 0
-3902 -4022 0
-3903 -4023 0
-3904 -4024 0
-3905 -4025 0
-3906 -4026 0
-3907 -4027 0
-3908 -4028 0
-3909 -4029 0
-3910 -4030 0
-3911 -4031 0
-3912 -4032 0
-3913 -4033 0
-3914 -4034 0
-3915 -4035 0
-3916 -4036 0
-3917 -4037 0
-3918 -4038 0
-3919 -4039 0
-3920 -4040 0
-3921 -4041 0
-3922 -4042 0
-3923 -4043 0
-3924 -4044 0
-3925 -4045 0
-3926 -4046 0
-3927 -4047 0
-3928 -4048 0
-3929 -4049 0
-3930 -4050 0
-3931 -4051 0
-3932 -4052 0
-3933 -4053 0
-3934 -4054 0
-3935 -4055 0
-3936 -4056 0
-3937 -4057 0
-3938 -4058 0
-3939 -4059 0
-3940 -4060 0
-3941 -4061 0
-3942 -4062 0
-3943 -4063 0
-3944 -4064 0
-3945 -4065 0
-3946 -4066 0
-3947 -4067 0
-3948 -4068 0
-3949 -4069 0
-3950 -4070 0
-3951 -4071 0
-3952 -4072 0
-3953 -4073 0
-3954 -4074 0
-3955 -4075 0
-3956 -4076 0
-3957 -4077 0
-3958 -4078 0
-3959 -4079 0
-3960 -4080 0
-3901 -4261 0
-3902 -4262 0
-3903 -4263 0
-3904 -4264 0
-3905 -4265 0
-3906 -4266 0
-3907 -4267 0
-3908 -4268 0
-3909 -4269 0
-3910 -4270 0
-3911 -4271 0
-3912 -4272 0
-3913 -4273 0
-3914 -4274 0
-3915 -4275 0
-3916 -4276 0
-3917 -4277 0
-3918 -4278 0
-3919 -4279 0
-3920 -4280 0
-3921 -4281 0
-3922 -4282 0
-3923 -4283 0
-3924 -4284 0
-3925 -4285 0
-3926 -4286 0
-3927 -4287 0
-3928 -4288 0
-3929 -4289 0
-3930 -4290 0
-3931 -4291 0
-3932 -4292 0
-3933 -4293 0
-3934 -4294 0
-3935 -4295 0
-3936 -4296 0
-3937 -4297 0
-3938 -4298 0
-3939 -4299 0
-3940 -4300 0
-3941 -4301 0
-3942 -4302 0
-3943 -4303 0
-3944 -4304 0
-3945 -4305 0
-3946 -4306 0
-3947 -4307 0
-3948 -4308 0
-3949 -4309 0
-3950 -4310 0
-3951 -4311 0
-3952 -4312 0
-3953 -4313 0
-3954 -4314 0
-3955 -4315 0
-3956 -4316 0
-3957 -4317 0
-3958 -4318 0
-3959 -4319 0
-3960 -4320 0
-3901 -4681 0
-3902 -4682 0
-3903 -4683 0
-3904 -4684 0
-3905 -4685 0
-3906 -4686 0
-3907 -4687 0
-3908 -4688 0
-3909 -4689 0
-3910 -4690 0
-3911 -4691 0
-3912 -4692 0
-3913 -4693 0
-3914 -4694 0
-3915 -4695 0
-3916 -4696 0
-3917 -4697 0
-3918 -4698 0
-3919 -4699 0
-3920 -4700 0
-3921 -4701 0
-3922 -4702 0
-3923 -4703 0
-3924 -4704 0
-3925 -4705 0
-3926 -4706 0
-3927 -4707 0
-3928 -4708 0
-3929 -4709 0
-3930 -4710 0
-3931 -4711 0
-3932 -4712 0
-3933 -4713 0
-3934 -4714 0
-3935 -4715 0
-3936 -4716 0
-3937 -4717 0
-3938 -4718 0
-3939 -4719 0
-3940 -4720 0
-3941 -4721 0
-3942 -4722 0
-3943 -4723 0
-3944 -4724 0
-3945 -4725 0
-3946 -4726 0
-3947 -4727 0
-3948 -4728 0
-3949 -4729 0
-3950 -4730 0
-3951 -4731 0
-3952 -4732 0
-3953 -4733 0
-3954 -4734 0
-3955 -4735 0
-3956 -4736 0
-3957 -4737 0
-3958 -4738 0
-3959 -4739 0
-3960 -4740 0
-3961 -2161 0
-3962 -2162 0
-3963 -2163 0
-3964 -2164 0
-3965 -2165 0
-3966 -2166 0
-3967 -2167 0
-3968 -2168 0
-3969 -2169 0
-3970 -2170 0
-3971 -2171 0
-3972 -2172 0
-3973 -2173 0
-3974 -2174 0
-3975 -2175 0
-3976 -2176 0
-3977 -2177 0
-3978 -2178 0
-3979 -2179 0
-3980 -2180 0
-3981 -2181 0
-3982 -2182 0
-3983 -2183 0
-3984 -2184 0
-3985 -2185 0
-3986 -2186 0
-3987 -2187 0
-3988 -2188 0
-3989 -2189 0
-3990 -2190 0
-3991 -2191 0
-3992 -2192 0
-3993 -2193 0
-3994 -2194 0
-3995 -2195 0
-3996 -2196 0
-3997 -2197 0
-3998 -2198 0
-3999 -2199 0
-4000 -2200 0
-4001 -2201 0
-4002 -2202 0
-4003 -2203 0
-4004 -2204 0
-4005 -2205 0
-4006 -2206 0
-4007 -2207 0
-4008 -2208 0
-4009 -2209 0
-4010 -2210 0
-4011 -2211 0
-4012 -2212 0
-4013 -2213 0
-4014 -2214 0
-4015 -2215 0
-4016 -2216 0
-4017 -2217 0
-4018 -2218 0
-4019 -2219 0
-4020 -2220 0
-4021 -181 0
-4022 -182 0
-4023 -183 0
-4024 -184 0
-4025 -185 0
-4026 -186 0
-4027 -187 0
-4028 -188 0
-4029 -189 0
-4030 -190 0
-4031 -191 0
-4032 -192 0
-4033 -193 0
-4034 -194 0
-4035 -195 0
-4036 -196 0
-4037 -197 0
-4038 -198 0
-4039 -199 0
-4040 -200 0
-4041 -201 0
-4042 -202 0
-4043 -203 0
-4044 -204 0
-4045 -205 0
-4046 -206 0
-4047 -207 0
-4048 -208 0
-4049 -209 0
-4050 -210 0
-4051 -211 0
-4052 -212 0
-4053 -213 0
-4054 -214 0
-4055 -215 0
-4056 -216 0
-4057 -217 0
-4058 -218 0
-4059 -219 0
-4060 -220 0
-4061 -221 0
-4062 -222 0
-4063 -223 0
-4064 -224 0
-4065 -225 0
-4066 -226 0
-4067 -227 0
-4068 -228 0
-4069 -229 0
-4070 -230 0
-4071 -231 0
-4072 -232 0
-4073 -233 0
-4074 -234 0
-4075 -235 0
-4076 -236 0
-4077 -237 0
-4078 -238 0
-4079 -239 0
-4080 -240 0
-4021 -361 0
-4022 -362 0
-4023 -363 0
-4024 -364 0
-4025 -365 0
-4026 -366 0
-4027 -367 0
-4028 -368 0
-4029 -369 0
-4030 -370 0
-4031 -371 0
-4032 -372 0
-4033 -373 0
-4034 -374 0
-4035 -375 0
-4036 -376 0
-4037 -377 0
-4038 -378 0
-4039 -379 0
-4040 -380 0
-4041 -381 0
-4042 -382 0
-4043 -383 0
-4044 -384 0
-4045 -385 0
-4046 -386 0
-4047 -387 0
-4048 -388 0
-4049 -389 0
-4050 -390 0
-4051 -391 0
-4052 -392 0
-4053 -393 0
-4054 -394 0
-4055 -395 0
-4056 -396 0
-4057 -397 0
-4058 -398 0
-4059 -399 0
-4060 -400 0
-4061 -401 0
-4062 -402 0
-4063 -403 0
-4064 -404 0
-4065 -405 0
-4066 -406 0
-4067 -407 0
-4068 -408 0
-4069 -409 0
-4070 -410 0
-4071 -411 0
-4072 -412 0
-4073 -413 0
-4074 -414 0
-4075 -415 0
-4076 -416 0
-4077 -417 0
-4078 -418 0
-4079 -419 0
-4080 -420 0
-4021 -481 0
-4022 -482 0
-4023 -483 0
-4024 -484 0
-4025 -485 0
-4026 -486 0
-4027 -487 0
-4028 -488 0
-4029 -489 0
-4030 -490 0
-4031 -491 0
-4032 -492 0
-4033 -493 0
-4034 -494 0
-4035 -495 0
-4036 -496 0
-4037 -497 0
-4038 -498 0
-4039 -499 0
-4040 -500 0
-4041 -501 0
-4042 -502 0
-4043 -503 0
-4044 -504 0
-4045 -505 0
-4046 -506 0
-4047 -507 0
-4048 -508 0
-4049 -509 0
-4050 -510 0
-4051 -511 0
-4052 -512 0
-4053 -513 0
-4054 -514 0
-4055 -515 0
-4056 -516 0
-4057 -517 0
-4058 -518 0
-4059 -519 0
-4060 -520 0
-4061 -521 0
-4062 -522 0
-4063 -523 0
-4064 -524 0
-4065 -525 0
-4066 -526 0
-4067 -527 0
-4068 -528 0
-4069 -529 0
-4070 -530 0
-4071 -531 0
-4072 -532 0
-4073 -533 0
-4074 -534 0
-4075 -535 0
-4076 -536 0
-4077 -537 0
-4078 -538 0
-4079 -539 0
-4080 -540 0
-4021 -841 0
-4022 -842 0
-4023 -843 0
-4024 -844 0
-4025 -845 0
-4026 -846 0
-4027 -847 0
-4028 -848 0
-4029 -849 0
-4030 -850 0
-4031 -851 0
-4032 -852 0
-4033 -853 0
-4034 -854 0
-4035 -855 0
-4036 -856 0
-4037 -857 0
-4038 -858 0
-4039 -859 0
-4040 -860 0
-4041 -861 0
-4042 -862 0
-4043 -863 0
-4044 -864 0
-4045 -865 0
-4046 -866 0
-4047 -867 0
-4048 -868 0
-4049 -869 0
-4050 -870 0
-4051 -871 0
-4052 -872 0
-4053 -873 0
-4054 -874 0
-4055 -875 0
-4056 -876 0
-4057 -877 0
-4058 -878 0
-4059 -879 0
-4060 -880 0
-4061 -881 0
-4062 -882 0
-4063 -883 0
-4064 -884 0
-4065 -885 0
-4066 -886 0
-4067 -887 0
-4068 -888 0
-4069 -889 0
-4070 -890 0
-4071 -891 0
-4072 -892 0
-4073 -893 0
-4074 -894 0
-4075 -895 0
-4076 -896 0
-4077 -897 0
-4078 -898 0
-4079 -899 0
-4080 -900 0
-4021 -1081 0
-4022 -1082 0
-4023 -1083 0
-4024 -1084 0
-4025 -1085 0
-4026 -1086 0
-4027 -1087 0
-4028 -1088 0
-4029 -1089 0
-4030 -1090 0
-4031 -1091 0
-4032 -1092 0
-4033 -1093 0
-4034 -1094 0
-4035 -1095 0
-4036 -1096 0
-4037 -1097 0
-4038 -1098 0
-4039 -1099 0
-4040 -1100 0
-4041 -1101 0
-4042 -1102 0
-4043 -1103 0
-4044 -1104 0
-4045 -1105 0
-4046 -1106 0
-4047 -1107 0
-4048 -1108 0
-4049 -1109 0
-4050 -1110 0
-4051 -1111 0
-4052 -1112 0
-4053 -1113 0
-4054 -1114 0
-4055 -1115 0
-4056 -1116 0
-4057 -1117 0
-4058 -1118 0
-4059 -1119 0
-4060 -1120 0
-4061 -1121 0
-4062 -1122 0
-4063 -1123 0
-4064 -1124 0
-4065 -1125 0
-4066 -1126 0
-4067 -1127 0
-4068 -1128 0
-4069 -1129 0
-4070 -1130 0
-4071 -1131 0
-4072 -1132 0
-4073 -1133 0
-4074 -1134 0
-4075 -1135 0
-4076 -1136 0
-4077 -1137 0
-4078 -1138 0
-4079 -1139 0
-4080 -1140 0
-4021 -1981 0
-4022 -1982 0
-4023 -1983 0
-4024 -1984 0
-4025 -1985 0
-4026 -1986 0
-4027 -1987 0
-4028 -1988 0
-4029 -1989 0
-4030 -1990 0
-4031 -1991 0
-4032 -1992 0
-4033 -1993 0
-4034 -1994 0
-4035 -1995 0
-4036 -1996 0
-4037 -1997 0
-4038 -1998 0
-4039 -1999 0
-4040 -2000 0
-4041 -2001 0
-4042 -2002 0
-4043 -2003 0
-4044 -2004 0
-4045 -2005 0
-4046 -2006 0
-4047 -2007 0
-4048 -2008 0
-4049 -2009 0
-4050 -2010 0
-4051 -2011 0
-4052 -2012 0
-4053 -2013 0
-4054 -2014 0
-4055 -2015 0
-4056 -2016 0
-4057 -2017 0
-4058 -2018 0
-4059 -2019 0
-4060 -2020 0
-4061 -2021 0
-4062 -2022 0
-4063 -2023 0
-4064 -2024 0
-4065 -2025 0
-4066 -2026 0
-4067 -2027 0
-4068 -2028 0
-4069 -2029 0
-4070 -2030 0
-4071 -2031 0
-4072 -2032 0
-4073 -2033 0
-4074 -2034 0
-4075 -2035 0
-4076 -2036 0
-4077 -2037 0
-4078 -2038 0
-4079 -2039 0
-4080 -2040 0
-4021 -2221 0
-4022 -2222 0
-4023 -2223 0
-4024 -2224 0
-4025 -2225 0
-4026 -2226 0
-4027 -2227 0
-4028 -2228 0
-4029 -2229 0
-4030 -2230 0
-4031 -2231 0
-4032 -2232 0
-4033 -2233 0
-4034 -2234 0
-4035 -2235 0
-4036 -2236 0
-4037 -2237 0
-4038 -2238 0
-4039 -2239 0
-4040 -2240 0
-4041 -2241 0
-4042 -2242 0
-4043 -2243 0
-4044 -2244 0
-4045 -2245 0
-4046 -2246 0
-4047 -2247 0
-4048 -2248 0
-4049 -2249 0
-4050 -2250 0
-4051 -2251 0
-4052 -2252 0
-4053 -2253 0
-4054 -2254 0
-4055 -2255 0
-4056 -2256 0
-4057 -2257 0
-4058 -2258 0
-4059 -2259 0
-4060 -2260 0
-4061 -2261 0
-4062 -2262 0
-4063 -2263 0
-4064 -2264 0
-4065 -2265 0
-4066 -2266 0
-4067 -2267 0
-4068 -2268 0
-4069 -2269 0
-4070 -2270 0
-4071 -2271 0
-4072 -2272 0
-4073 -2273 0
-4074 -2274 0
-4075 -2275 0
-4076 -2276 0
-4077 -2277 0
-4078 -2278 0
-4079 -2279 0
-4080 -2280 0
-4021 -2941 0
-4022 -2942 0
-4023 -2943 0
-4024 -2944 0
-4025 -2945 0
-4026 -2946 0
-4027 -2947 0
-4028 -2948 0
-4029 -2949 0
-4030 -2950 0
-4031 -2951 0
-4032 -2952 0
-4033 -2953 0
-4034 -2954 0
-4035 -2955 0
-4036 -2956 0
-4037 -2957 0
-4038 -2958 0
-4039 -2959 0
-4040 -2960 0
-4041 -2961 0
-4042 -2962 0
-4043 -2963 0
-4044 -2964 0
-4045 -2965 0
-4046 -2966 0
-4047 -2967 0
-4048 -2968 0
-4049 -2969 0
-4050 -2970 0
-4051 -2971 0
-4052 -2972 0
-4053 -2973 0
-4054 -2974 0
-4055 -2975 0
-4056 -2976 0
-4057 -2977 0
-4058 -2978 0
-4059 -2979 0
-4060 -2980 0
-4061 -2981 0
-4062 -2982 0
-4063 -2983 0
-4064 -2984 0
-4065 -2985 0
-4066 -2986 0
-4067 -2987 0
-4068 -2988 0
-4069 -2989 0
-4070 -2990 0
-4071 -2991 0
-4072 -2992 0
-4073 -2993 0
-4074 -2994 0
-4075 -2995 0
-4076 -2996 0
-4077 -2997 0
-4078 -2998 0
-4079 -2999 0
-4080 -3000 0
-4021 -3901 0
-4022 -3902 0
-4023 -3903 0
-4024 -3904 0
-4025 -3905 0
-4026 -3906 0
-4027 -3907 0
-4028 -3908 0
-4029 -3909 0
-4030 -3910 0
-4031 -3911 0
-4032 -3912 0
-4033 -3913 0
-4034 -3914 0
-4035 -3915 0
-4036 -3916 0
-4037 -3917 0
-4038 -3918 0
-4039 -3919 0
-4040 -3920 0
-4041 -3921 0
-4042 -3922 0
-4043 -3923 0
-4044 -3924 0
-4045 -3925 0
-4046 -3926 0
-4047 -3927 0
-4048 -3928 0
-4049 -3929 0
-4050 -3930 0
-4051 -3931 0
-4052 -3932 0
-4053 -3933 0
-4054 -3934 0
-4055 -3935 0
-4056 -3936 0
-4057 -3937 0
-4058 -3938 0
-4059 -3939 0
-4060 -3940 0
-4061 -3941 0
-4062 -3942 0
-4063 -3943 0
-4064 -3944 0
-4065 -3945 0
-4066 -3946 0
-4067 -3947 0
-4068 -3948 0
-4069 -3949 0
-4070 -3950 0
-4071 -3951 0
-4072 -3952 0
-4073 -3953 0
-4074 -3954 0
-4075 -3955 0
-4076 -3956 0
-4077 -3957 0
-4078 -3958 0
-4079 -3959 0
-4080 -3960 0
-4021 -4261 0
-4022 -4262 0
-4023 -4263 0
-4024 -4264 0
-4025 -4265 0
-4026 -4266 0
-4027 -4267 0
-4028 -4268 0
-4029 -4269 0
-4030 -4270 0
-4031 -4271 0
-4032 -4272 0
-4033 -4273 0
-4034 -4274 0
-4035 -4275 0
-4036 -4276 0
-4037 -4277 0
-4038 -4278 0
-4039 -4279 0
-4040 -4280 0
-4041 -4281 0
-4042 -4282 0
-4043 -4283 0
-4044 -4284 0
-4045 -4285 0
-4046 -4286 0
-4047 -4287 0
-4048 -4288 0
-4049 -4289 0
-4050 -4290 0
-4051 -4291 0
-4052 -4292 0
-4053 -4293 0
-4054 -4294 0
-4055 -4295 0
-4056 -4296 0
-4057 -4297 0
-4058 -4298 0
-4059 -4299 0
-4060 -4300 0
-4061 -4301 0
-4062 -4302 0
-4063 -4303 0
-4064 -4304 0
-4065 -4305 0
-4066 -4306 0
-4067 -4307 0
-4068 -4308 0
-4069 -4309 0
-4070 -4310 0
-4071 -4311 0
-4072 -4312 0
-4073 -4313 0
-4074 -4314 0
-4075 -4315 0
-4076 -4316 0
-4077 -4317 0
-4078 -4318 0
-4079 -4319 0
-4080 -4320 0
-4021 -4681 0
-4022 -4682 0
-4023 -4683 0
-4024 -4684 0
-4025 -4685 0
-4026 -4686 0
-4027 -4687 0
-4028 -4688 0
-4029 -4689 0
-4030 -4690 0
-4031 -4691 0
-4032 -4692 0
-4033 -4693 0
-4034 -4694 0
-4035 -4695 0
-4036 -4696 0
-4037 -4697 0
-4038 -4698 0
-4039 -4699 0
-4040 -4700 0
-4041 -4701 0
-4042 -4702 0
-4043 -4703 0
-4044 -4704 0
-4045 -4705 0
-4046 -4706 0
-4047 -4707 0
-4048 -4708 0
-4049 -4709 0
-4050 -4710 0
-4051 -4711 0
-4052 -4712 0
-4053 -4713 0
-4054 -4714 0
-4055 -4715 0
-4056 -4716 0
-4057 -4717 0
-4058 -4718 0
-4059 -4719 0
-4060 -4720 0
-4061 -4721 0
-4062 -4722 0
-4063 -4723 0
-4064 -4724 0
-4065 -4725 0
-4066 -4726 0
-4067 -4727 0
-4068 -4728 0
-4069 -4729 0
-4070 -4730 0
-4071 -4731 0
-4072 -4732 0
-4073 -4733 0
-4074 -4734 0
-4075 -4735 0
-4076 -4736 0
-4077 -4737 0
-4078 -4738 0
-4079 -4739 0
-4080 -4740 0
-4081 -121 0
-4082 -122 0
-4083 -123 0
-4084 -124 0
-4085 -125 0
-4086 -126 0
-4087 -127 0
-4088 -128 0
-4089 -129 0
-4090 -130 0
-4091 -131 0
-4092 -132 0
-4093 -133 0
-4094 -134 0
-4095 -135 0
-4096 -136 0
-4097 -137 0
-4098 -138 0
-4099 -139 0
-4100 -140 0
-4101 -141 0
-4102 -142 0
-4103 -143 0
-4104 -144 0
-4105 -145 0
-4106 -146 0
-4107 -147 0
-4108 -148 0
-4109 -149 0
-4110 -150 0
-4111 -151 0
-4112 -152 0
-4113 -153 0
-4114 -154 0
-4115 -155 0
-4116 -156 0
-4117 -157 0
-4118 -158 0
-4119 -159 0
-4120 -160 0
-4121 -161 0
-4122 -162 0
-4123 -163 0
-4124 -164 0
-4125 -165 0
-4126 -166 0
-4127 -167 0
-4128 -168 0
-4129 -169 0
-4130 -170 0
-4131 -171 0
-4132 -172 0
-4133 -173 0
-4134 -174 0
-4135 -175 0
-4136 -176 0
-4137 -177 0
-4138 -178 0
-4139 -179 0
-4140 -180 0
-4081 -1441 0
-4082 -1442 0
-4083 -1443 0
-4084 -1444 0
-4085 -1445 0
-4086 -1446 0
-4087 -1447 0
-4088 -1448 0
-4089 -1449 0
-4090 -1450 0
-4091 -1451 0
-4092 -1452 0
-4093 -1453 0
-4094 -1454 0
-4095 -1455 0
-4096 -1456 0
-4097 -1457 0
-4098 -1458 0
-4099 -1459 0
-4100 -1460 0
-4101 -1461 0
-4102 -1462 0
-4103 -1463 0
-4104 -1464 0
-4105 -1465 0
-4106 -1466 0
-4107 -1467 0
-4108 -1468 0
-4109 -1469 0
-4110 -1470 0
-4111 -1471 0
-4112 -1472 0
-4113 -1473 0
-4114 -1474 0
-4115 -1475 0
-4116 -1476 0
-4117 -1477 0
-4118 -1478 0
-4119 -1479 0
-4120 -1480 0
-4121 -1481 0
-4122 -1482 0
-4123 -1483 0
-4124 -1484 0
-4125 -1485 0
-4126 -1486 0
-4127 -1487 0
-4128 -1488 0
-4129 -1489 0
-4130 -1490 0
-4131 -1491 0
-4132 -1492 0
-4133 -1493 0
-4134 -1494 0
-4135 -1495 0
-4136 -1496 0
-4137 -1497 0
-4138 -1498 0
-4139 -1499 0
-4140 -1500 0
-4081 -1561 0
-4082 -1562 0
-4083 -1563 0
-4084 -1564 0
-4085 -1565 0
-4086 -1566 0
-4087 -1567 0
-4088 -1568 0
-4089 -1569 0
-4090 -1570 0
-4091 -1571 0
-4092 -1572 0
-4093 -1573 0
-4094 -1574 0
-4095 -1575 0
-4096 -1576 0
-4097 -1577 0
-4098 -1578 0
-4099 -1579 0
-4100 -1580 0
-4101 -1581 0
-4102 -1582 0
-4103 -1583 0
-4104 -1584 0
-4105 -1585 0
-4106 -1586 0
-4107 -1587 0
-4108 -1588 0
-4109 -1589 0
-4110 -1590 0
-4111 -1591 0
-4112 -1592 0
-4113 -1593 0
-4114 -1594 0
-4115 -1595 0
-4116 -1596 0
-4117 -1597 0
-4118 -1598 0
-4119 -1599 0
-4120 -1600 0
-4121 -1601 0
-4122 -1602 0
-4123 -1603 0
-4124 -1604 0
-4125 -1605 0
-4126 -1606 0
-4127 -1607 0
-4128 -1608 0
-4129 -1609 0
-4130 -1610 0
-4131 -1611 0
-4132 -1612 0
-4133 -1613 0
-4134 -1614 0
-4135 -1615 0
-4136 -1616 0
-4137 -1617 0
-4138 -1618 0
-4139 -1619 0
-4140 -1620 0
-4081 -1921 0
-4082 -1922 0
-4083 -1923 0
-4084 -1924 0
-4085 -1925 0
-4086 -1926 0
-4087 -1927 0
-4088 -1928 0
-4089 -1929 0
-4090 -1930 0
-4091 -1931 0
-4092 -1932 0
-4093 -1933 0
-4094 -1934 0
-4095 -1935 0
-4096 -1936 0
-4097 -1937 0
-4098 -1938 0
-4099 -1939 0
-4100 -1940 0
-4101 -1941 0
-4102 -1942 0
-4103 -1943 0
-4104 -1944 0
-4105 -1945 0
-4106 -1946 0
-4107 -1947 0
-4108 -1948 0
-4109 -1949 0
-4110 -1950 0
-4111 -1951 0
-4112 -1952 0
-4113 -1953 0
-4114 -1954 0
-4115 -1955 0
-4116 -1956 0
-4117 -1957 0
-4118 -1958 0
-4119 -1959 0
-4120 -1960 0
-4121 -1961 0
-4122 -1962 0
-4123 -1963 0
-4124 -1964 0
-4125 -1965 0
-4126 -1966 0
-4127 -1967 0
-4128 -1968 0
-4129 -1969 0
-4130 -1970 0
-4131 -1971 0
-4132 -1972 0
-4133 -1973 0
-4134 -1974 0
-4135 -1975 0
-4136 -1976 0
-4137 -1977 0
-4138 -1978 0
-4139 -1979 0
-4140 -1980 0
-4081 -2341 0
-4082 -2342 0
-4083 -2343 0
-4084 -2344 0
-4085 -2345 0
-4086 -2346 0
-4087 -2347 0
-4088 -2348 0
-4089 -2349 0
-4090 -2350 0
-4091 -2351 0
-4092 -2352 0
-4093 -2353 0
-4094 -2354 0
-4095 -2355 0
-4096 -2356 0
-4097 -2357 0
-4098 -2358 0
-4099 -2359 0
-4100 -2360 0
-4101 -2361 0
-4102 -2362 0
-4103 -2363 0
-4104 -2364 0
-4105 -2365 0
-4106 -2366 0
-4107 -2367 0
-4108 -2368 0
-4109 -2369 0
-4110 -2370 0
-4111 -2371 0
-4112 -2372 0
-4113 -2373 0
-4114 -2374 0
-4115 -2375 0
-4116 -2376 0
-4117 -2377 0
-4118 -2378 0
-4119 -2379 0
-4120 -2380 0
-4121 -2381 0
-4122 -2382 0
-4123 -2383 0
-4124 -2384 0
-4125 -2385 0
-4126 -2386 0
-4127 -2387 0
-4128 -2388 0
-4129 -2389 0
-4130 -2390 0
-4131 -2391 0
-4132 -2392 0
-4133 -2393 0
-4134 -2394 0
-4135 -2395 0
-4136 -2396 0
-4137 -2397 0
-4138 -2398 0
-4139 -2399 0
-4140 -2400 0
-4081 -3721 0
-4082 -3722 0
-4083 -3723 0
-4084 -3724 0
-4085 -3725 0
-4086 -3726 0
-4087 -3727 0
-4088 -3728 0
-4089 -3729 0
-4090 -3730 0
-4091 -3731 0
-4092 -3732 0
-4093 -3733 0
-4094 -3734 0
-4095 -3735 0
-4096 -3736 0
-4097 -3737 0
-4098 -3738 0
-4099 -3739 0
-4100 -3740 0
-4101 -3741 0
-4102 -3742 0
-4103 -3743 0
-4104 -3744 0
-4105 -3745 0
-4106 -3746 0
-4107 -3747 0
-4108 -3748 0
-4109 -3749 0
-4110 -3750 0
-4111 -3751 0
-4112 -3752 0
-4113 -3753 0
-4114 -3754 0
-4115 -3755 0
-4116 -3756 0
-4117 -3757 0
-4118 -3758 0
-4119 -3759 0
-4120 -3760 0
-4121 -3761 0
-4122 -3762 0
-4123 -3763 0
-4124 -3764 0
-4125 -3765 0
-4126 -3766 0
-4127 -3767 0
-4128 -3768 0
-4129 -3769 0
-4130 -3770 0
-4131 -3771 0
-4132 -3772 0
-4133 -3773 0
-4134 -3774 0
-4135 -3775 0
-4136 -3776 0
-4137 -3777 0
-4138 -3778 0
-4139 -3779 0
-4140 -3780 0
-4081 -4321 0
-4082 -4322 0
-4083 -4323 0
-4084 -4324 0
-4085 -4325 0
-4086 -4326 0
-4087 -4327 0
-4088 -4328 0
-4089 -4329 0
-4090 -4330 0
-4091 -4331 0
-4092 -4332 0
-4093 -4333 0
-4094 -4334 0
-4095 -4335 0
-4096 -4336 0
-4097 -4337 0
-4098 -4338 0
-4099 -4339 0
-4100 -4340 0
-4101 -4341 0
-4102 -4342 0
-4103 -4343 0
-4104 -4344 0
-4105 -4345 0
-4106 -4346 0
-4107 -4347 0
-4108 -4348 0
-4109 -4349 0
-4110 -4350 0
-4111 -4351 0
-4112 -4352 0
-4113 -4353 0
-4114 -4354 0
-4115 -4355 0
-4116 -4356 0
-4117 -4357 0
-4118 -4358 0
-4119 -4359 0
-4120 -4360 0
-4121 -4361 0
-4122 -4362 0
-4123 -4363 0
-4124 -4364 0
-4125 -4365 0
-4126 -4366 0
-4127 -4367 0
-4128 -4368 0
-4129 -4369 0
-4130 -4370 0
-4131 -4371 0
-4132 -4372 0
-4133 -4373 0
-4134 -4374 0
-4135 -4375 0
-4136 -4376 0
-4137 -4377 0
-4138 -4378 0
-4139 -4379 0
-4140 -4380 0
-4141 -2161 0
-4142 -2162 0
-4143 -2163 0
-4144 -2164 0
-4145 -2165 0
-4146 -2166 0
-4147 -2167 0
-4148 -2168 0
-4149 -2169 0
-4150 -2170 0
-4151 -2171 0
-4152 -2172 0
-4153 -2173 0
-4154 -2174 0
-4155 -2175 0
-4156 -2176 0
-4157 -2177 0
-4158 -2178 0
-4159 -2179 0
-4160 -2180 0
-4161 -2181 0
-4162 -2182 0
-4163 -2183 0
-4164 -2184 0
-4165 -2185 0
-4166 -2186 0
-4167 -2187 0
-4168 -2188 0
-4169 -2189 0
-4170 -2190 0
-4171 -2191 0
-4172 -2192 0
-4173 -2193 0
-4174 -2194 0
-4175 -2195 0
-4176 -2196 0
-4177 -2197 0
-4178 -2198 0
-4179 -2199 0
-4180 -2200 0
-4181 -2201 0
-4182 -2202 0
-4183 -2203 0
-4184 -2204 0
-4185 -2205 0
-4186 -2206 0
-4187 -2207 0
-4188 -2208 0
-4189 -2209 0
-4190 -2210 0
-4191 -2211 0
-4192 -2212 0
-4193 -2213 0
-4194 -2214 0
-4195 -2215 0
-4196 -2216 0
-4197 -2217 0
-4198 -2218 0
-4199 -2219 0
-4200 -2220 0
-4261 -181 0
-4262 -182 0
-4263 -183 0
-4264 -184 0
-4265 -185 0
-4266 -186 0
-4267 -187 0
-4268 -188 0
-4269 -189 0
-4270 -190 0
-4271 -191 0
-4272 -192 0
-4273 -193 0
-4274 -194 0
-4275 -195 0
-4276 -196 0
-4277 -197 0
-4278 -198 0
-4279 -199 0
-4280 -200 0
-4281 -201 0
-4282 -202 0
-4283 -203 0
-4284 -204 0
-4285 -205 0
-4286 -206 0
-4287 -207 0
-4288 -208 0
-4289 -209 0
-4290 -210 0
-4291 -211 0
-4292 -212 0
-4293 -213 0
-4294 -214 0
-4295 -215 0
-4296 -216 0
-4297 -217 0
-4298 -218 0
-4299 -219 0
-4300 -220 0
-4301 -221 0
-4302 -222 0
-4303 -223 0
-4304 -224 0
-4305 -225 0
-4306 -226 0
-4307 -227 0
-4308 -228 0
-4309 -229 0
-4310 -230 0
-4311 -231 0
-4312 -232 0
-4313 -233 0
-4314 -234 0
-4315 -235 0
-4316 -236 0
-4317 -237 0
-4318 -238 0
-4319 -239 0
-4320 -240 0
-4261 -301 0
-4262 -302 0
-4263 -303 0
-4264 -304 0
-4265 -305 0
-4266 -306 0
-4267 -307 0
-4268 -308 0
-4269 -309 0
-4270 -310 0
-4271 -311 0
-4272 -312 0
-4273 -313 0
-4274 -314 0
-4275 -315 0
-4276 -316 0
-4277 -317 0
-4278 -318 0
-4279 -319 0
-4280 -320 0
-4281 -321 0
-4282 -322 0
-4283 -323 0
-4284 -324 0
-4285 -325 0
-4286 -326 0
-4287 -327 0
-4288 -328 0
-4289 -329 0
-4290 -330 0
-4291 -331 0
-4292 -332 0
-4293 -333 0
-4294 -334 0
-4295 -335 0
-4296 -336 0
-4297 -337 0
-4298 -338 0
-4299 -339 0
-4300 -340 0
-4301 -341 0
-4302 -342 0
-4303 -343 0
-4304 -344 0
-4305 -345 0
-4306 -346 0
-4307 -347 0
-4308 -348 0
-4309 -349 0
-4310 -350 0
-4311 -351 0
-4312 -352 0
-4313 -353 0
-4314 -354 0
-4315 -355 0
-4316 -356 0
-4317 -357 0
-4318 -358 0
-4319 -359 0
-4320 -360 0
-4261 -361 0
-4262 -362 0
-4263 -363 0
-4264 -364 0
-4265 -365 0
-4266 -366 0
-4267 -367 0
-4268 -368 0
-4269 -369 0
-4270 -370 0
-4271 -371 0
-4272 -372 0
-4273 -373 0
-4274 -374 0
-4275 -375 0
-4276 -376 0
-4277 -377 0
-4278 -378 0
-4279 -379 0
-4280 -380 0
-4281 -381 0
-4282 -382 0
-4283 -383 0
-4284 -384 0
-4285 -385 0
-4286 -386 0
-4287 -387 0
-4288 -388 0
-4289 -389 0
-4290 -390 0
-4291 -391 0
-4292 -392 0
-4293 -393 0
-4294 -394 0
-4295 -395 0
-4296 -396 0
-4297 -397 0
-4298 -398 0
-4299 -399 0
-4300 -400 0
-4301 -401 0
-4302 -402 0
-4303 -403 0
-4304 -404 0
-4305 -405 0
-4306 -406 0
-4307 -407 0
-4308 -408 0
-4309 -409 0
-4310 -410 0
-4311 -411 0
-4312 -412 0
-4313 -413 0
-4314 -414 0
-4315 -415 0
-4316 -416 0
-4317 -417 0
-4318 -418 0
-4319 -419 0
-4320 -420 0
-4261 -421 0
-4262 -422 0
-4263 -423 0
-4264 -424 0
-4265 -425 0
-4266 -426 0
-4267 -427 0
-4268 -428 0
-4269 -429 0
-4270 -430 0
-4271 -431 0
-4272 -432 0
-4273 -433 0
-4274 -434 0
-4275 -435 0
-4276 -436 0
-4277 -437 0
-4278 -438 0
-4279 -439 0
-4280 -440 0
-4281 -441 0
-4282 -442 0
-4283 -443 0
-4284 -444 0
-4285 -445 0
-4286 -446 0
-4287 -447 0
-4288 -448 0
-4289 -449 0
-4290 -450 0
-4291 -451 0
-4292 -452 0
-4293 -453 0
-4294 -454 0
-4295 -455 0
-4296 -456 0
-4297 -457 0
-4298 -458 0
-4299 -459 0
-4300 -460 0
-4301 -461 0
-4302 -462 0
-4303 -463 0
-4304 -464 0
-4305 -465 0
-4306 -466 0
-4307 -467 0
-4308 -468 0
-4309 -469 0
-4310 -470 0
-4311 -471 0
-4312 -472 0
-4313 -473 0
-4314 -474 0
-4315 -475 0
-4316 -476 0
-4317 -477 0
-4318 -478 0
-4319 -479 0
-4320 -480 0
-4261 -481 0
-4262 -482 0
-4263 -483 0
-4264 -484 0
-4265 -485 0
-4266 -486 0
-4267 -487 0
-4268 -488 0
-4269 -489 0
-4270 -490 0
-4271 -491 0
-4272 -492 0
-4273 -493 0
-4274 -494 0
-4275 -495 0
-4276 -496 0
-4277 -497 0
-4278 -498 0
-4279 -499 0
-4280 -500 0
-4281 -501 0
-4282 -502 0
-4283 -503 0
-4284 -504 0
-4285 -505 0
-4286 -506 0
-4287 -507 0
-4288 -508 0
-4289 -509 0
-4290 -510 0
-4291 -511 0
-4292 -512 0
-4293 -513 0
-4294 -514 0
-4295 -515 0
-4296 -516 0
-4297 -517 0
-4298 -518 0
-4299 -519 0
-4300 -520 0
-4301 -521 0
-4302 -522 0
-4303 -523 0
-4304 -524 0
-4305 -525 0
-4306 -526 0
-4307 -527 0
-4308 -528 0
-4309 -529 0
-4310 -530 0
-4311 -531 0
-4312 -532 0
-4313 -533 0
-4314 -534 0
-4315 -535 0
-4316 -536 0
-4317 -537 0
-4318 -538 0
-4319 -539 0
-4320 -540 0
-4261 -601 0
-4262 -602 0
-4263 -603 0
-4264 -604 0
-4265 -605 0
-4266 -606 0
-4267 -607 0
-4268 -608 0
-4269 -609 0
-4270 -610 0
-4271 -611 0
-4272 -612 0
-4273 -613 0
-4274 -614 0
-4275 -615 0
-4276 -616 0
-4277 -617 0
-4278 -618 0
-4279 -619 0
-4280 -620 0
-4281 -621 0
-4282 -622 0
-4283 -623 0
-4284 -624 0
-4285 -625 0
-4286 -626 0
-4287 -627 0
-4288 -628 0
-4289 -629 0
-4290 -630 0
-4291 -631 0
-4292 -632 0
-4293 -633 0
-4294 -634 0
-4295 -635 0
-4296 -636 0
-4297 -637 0
-4298 -638 0
-4299 -639 0
-4300 -640 0
-4301 -641 0
-4302 -642 0
-4303 -643 0
-4304 -644 0
-4305 -645 0
-4306 -646 0
-4307 -647 0
-4308 -648 0
-4309 -649 0
-4310 -650 0
-4311 -651 0
-4312 -652 0
-4313 -653 0
-4314 -654 0
-4315 -655 0
-4316 -656 0
-4317 -657 0
-4318 -658 0
-4319 -659 0
-4320 -660 0
-4261 -841 0
-4262 -842 0
-4263 -843 0
-4264 -844 0
-4265 -845 0
-4266 -846 0
-4267 -847 0
-4268 -848 0
-4269 -849 0
-4270 -850 0
-4271 -851 0
-4272 -852 0
-4273 -853 0
-4274 -854 0
-4275 -855 0
-4276 -856 0
-4277 -857 0
-4278 -858 0
-4279 -859 0
-4280 -860 0
-4281 -861 0
-4282 -862 0
-4283 -863 0
-4284 -864 0
-4285 -865 0
-4286 -866 0
-4287 -867 0
-4288 -868 0
-4289 -869 0
-4290 -870 0
-4291 -871 0
-4292 -872 0
-4293 -873 0
-4294 -874 0
-4295 -875 0
-4296 -876 0
-4297 -877 0
-4298 -878 0
-4299 -879 0
-4300 -880 0
-4301 -881 0
-4302 -882 0
-4303 -883 0
-4304 -884 0
-4305 -885 0
-4306 -886 0
-4307 -887 0
-4308 -888 0
-4309 -889 0
-4310 -890 0
-4311 -891 0
-4312 -892 0
-4313 -893 0
-4314 -894 0
-4315 -895 0
-4316 -896 0
-4317 -897 0
-4318 -898 0
-4319 -899 0
-4320 -900 0
-4261 -901 0
-4262 -902 0
-4263 -903 0
-4264 -904 0
-4265 -905 0
-4266 -906 0
-4267 -907 0
-4268 -908 0
-4269 -909 0
-4270 -910 0
-4271 -911 0
-4272 -912 0
-4273 -913 0
-4274 -914 0
-4275 -915 0
-4276 -916 0
-4277 -917 0
-4278 -918 0
-4279 -919 0
-4280 -920 0
-4281 -921 0
-4282 -922 0
-4283 -923 0
-4284 -924 0
-4285 -925 0
-4286 -926 0
-4287 -927 0
-4288 -928 0
-4289 -929 0
-4290 -930 0
-4291 -931 0
-4292 -932 0
-4293 -933 0
-4294 -934 0
-4295 -935 0
-4296 -936 0
-4297 -937 0
-4298 -938 0
-4299 -939 0
-4300 -940 0
-4301 -941 0
-4302 -942 0
-4303 -943 0
-4304 -944 0
-4305 -945 0
-4306 -946 0
-4307 -947 0
-4308 -948 0
-4309 -949 0
-4310 -950 0
-4311 -951 0
-4312 -952 0
-4313 -953 0
-4314 -954 0
-4315 -955 0
-4316 -956 0
-4317 -957 0
-4318 -958 0
-4319 -959 0
-4320 -960 0
-4261 -1081 0
-4262 -1082 0
-4263 -1083 0
-4264 -1084 0
-4265 -1085 0
-4266 -1086 0
-4267 -1087 0
-4268 -1088 0
-4269 -1089 0
-4270 -1090 0
-4271 -1091 0
-4272 -1092 0
-4273 -1093 0
-4274 -1094 0
-4275 -1095 0
-4276 -1096 0
-4277 -1097 0
-4278 -1098 0
-4279 -1099 0
-4280 -1100 0
-4281 -1101 0
-4282 -1102 0
-4283 -1103 0
-4284 -1104 0
-4285 -1105 0
-4286 -1106 0
-4287 -1107 0
-4288 -1108 0
-4289 -1109 0
-4290 -1110 0
-4291 -1111 0
-4292 -1112 0
-4293 -1113 0
-4294 -1114 0
-4295 -1115 0
-4296 -1116 0
-4297 -1117 0
-4298 -1118 0
-4299 -1119 0
-4300 -1120 0
-4301 -1121 0
-4302 -1122 0
-4303 -1123 0
-4304 -1124 0
-4305 -1125 0
-4306 -1126 0
-4307 -1127 0
-4308 -1128 0
-4309 -1129 0
-4310 -1130 0
-4311 -1131 0
-4312 -1132 0
-4313 -1133 0
-4314 -1134 0
-4315 -1135 0
-4316 -1136 0
-4317 -1137 0
-4318 -1138 0
-4319 -1139 0
-4320 -1140 0
-4261 -1621 0
-4262 -1622 0
-4263 -1623 0
-4264 -1624 0
-4265 -1625 0
-4266 -1626 0
-4267 -1627 0
-4268 -1628 0
-4269 -1629 0
-4270 -1630 0
-4271 -1631 0
-4272 -1632 0
-4273 -1633 0
-4274 -1634 0
-4275 -1635 0
-4276 -1636 0
-4277 -1637 0
-4278 -1638 0
-4279 -1639 0
-4280 -1640 0
-4281 -1641 0
-4282 -1642 0
-4283 -1643 0
-4284 -1644 0
-4285 -1645 0
-4286 -1646 0
-4287 -1647 0
-4288 -1648 0
-4289 -1649 0
-4290 -1650 0
-4291 -1651 0
-4292 -1652 0
-4293 -1653 0
-4294 -1654 0
-4295 -1655 0
-4296 -1656 0
-4297 -1657 0
-4298 -1658 0
-4299 -1659 0
-4300 -1660 0
-4301 -1661 0
-4302 -1662 0
-4303 -1663 0
-4304 -1664 0
-4305 -1665 0
-4306 -1666 0
-4307 -1667 0
-4308 -1668 0
-4309 -1669 0
-4310 -1670 0
-4311 -1671 0
-4312 -1672 0
-4313 -1673 0
-4314 -1674 0
-4315 -1675 0
-4316 -1676 0
-4317 -1677 0
-4318 -1678 0
-4319 -1679 0
-4320 -1680 0
-4261 -1981 0
-4262 -1982 0
-4263 -1983 0
-4264 -1984 0
-4265 -1985 0
-4266 -1986 0
-4267 -1987 0
-4268 -1988 0
-4269 -1989 0
-4270 -1990 0
-4271 -1991 0
-4272 -1992 0
-4273 -1993 0
-4274 -1994 0
-4275 -1995 0
-4276 -1996 0
-4277 -1997 0
-4278 -1998 0
-4279 -1999 0
-4280 -2000 0
-4281 -2001 0
-4282 -2002 0
-4283 -2003 0
-4284 -2004 0
-4285 -2005 0
-4286 -2006 0
-4287 -2007 0
-4288 -2008 0
-4289 -2009 0
-4290 -2010 0
-4291 -2011 0
-4292 -2012 0
-4293 -2013 0
-4294 -2014 0
-4295 -2015 0
-4296 -2016 0
-4297 -2017 0
-4298 -2018 0
-4299 -2019 0
-4300 -2020 0
-4301 -2021 0
-4302 -2022 0
-4303 -2023 0
-4304 -2024 0
-4305 -2025 0
-4306 -2026 0
-4307 -2027 0
-4308 -2028 0
-4309 -2029 0
-4310 -2030 0
-4311 -2031 0
-4312 -2032 0
-4313 -2033 0
-4314 -2034 0
-4315 -2035 0
-4316 -2036 0
-4317 -2037 0
-4318 -2038 0
-4319 -2039 0
-4320 -2040 0
-4261 -2161 0
-4262 -2162 0
-4263 -2163 0
-4264 -2164 0
-4265 -2165 0
-4266 -2166 0
-4267 -2167 0
-4268 -2168 0
-4269 -2169 0
-4270 -2170 0
-4271 -2171 0
-4272 -2172 0
-4273 -2173 0
-4274 -2174 0
-4275 -2175 0
-4276 -2176 0
-4277 -2177 0
-4278 -2178 0
-4279 -2179 0
-4280 -2180 0
-4281 -2181 0
-4282 -2182 0
-4283 -2183 0
-4284 -2184 0
-4285 -2185 0
-4286 -2186 0
-4287 -2187 0
-4288 -2188 0
-4289 -2189 0
-4290 -2190 0
-4291 -2191 0
-4292 -2192 0
-4293 -2193 0
-4294 -2194 0
-4295 -2195 0
-4296 -2196 0
-4297 -2197 0
-4298 -2198 0
-4299 -2199 0
-4300 -2200 0
-4301 -2201 0
-4302 -2202 0
-4303 -2203 0
-4304 -2204 0
-4305 -2205 0
-4306 -2206 0
-4307 -2207 0
-4308 -2208 0
-4309 -2209 0
-4310 -2210 0
-4311 -2211 0
-4312 -2212 0
-4313 -2213 0
-4314 -2214 0
-4315 -2215 0
-4316 -2216 0
-4317 -2217 0
-4318 -2218 0
-4319 -2219 0
-4320 -2220 0
-4261 -2221 0
-4262 -2222 0
-4263 -2223 0
-4264 -2224 0
-4265 -2225 0
-4266 -2226 0
-4267 -2227 0
-4268 -2228 0
-4269 -2229 0
-4270 -2230 0
-4271 -2231 0
-4272 -2232 0
-4273 -2233 0
-4274 -2234 0
-4275 -2235 0
-4276 -2236 0
-4277 -2237 0
-4278 -2238 0
-4279 -2239 0
-4280 -2240 0
-4281 -2241 0
-4282 -2242 0
-4283 -2243 0
-4284 -2244 0
-4285 -2245 0
-4286 -2246 0
-4287 -2247 0
-4288 -2248 0
-4289 -2249 0
-4290 -2250 0
-4291 -2251 0
-4292 -2252 0
-4293 -2253 0
-4294 -2254 0
-4295 -2255 0
-4296 -2256 0
-4297 -2257 0
-4298 -2258 0
-4299 -2259 0
-4300 -2260 0
-4301 -2261 0
-4302 -2262 0
-4303 -2263 0
-4304 -2264 0
-4305 -2265 0
-4306 -2266 0
-4307 -2267 0
-4308 -2268 0
-4309 -2269 0
-4310 -2270 0
-4311 -2271 0
-4312 -2272 0
-4313 -2273 0
-4314 -2274 0
-4315 -2275 0
-4316 -2276 0
-4317 -2277 0
-4318 -2278 0
-4319 -2279 0
-4320 -2280 0
-4261 -2461 0
-4262 -2462 0
-4263 -2463 0
-4264 -2464 0
-4265 -2465 0
-4266 -2466 0
-4267 -2467 0
-4268 -2468 0
-4269 -2469 0
-4270 -2470 0
-4271 -2471 0
-4272 -2472 0
-4273 -2473 0
-4274 -2474 0
-4275 -2475 0
-4276 -2476 0
-4277 -2477 0
-4278 -2478 0
-4279 -2479 0
-4280 -2480 0
-4281 -2481 0
-4282 -2482 0
-4283 -2483 0
-4284 -2484 0
-4285 -2485 0
-4286 -2486 0
-4287 -2487 0
-4288 -2488 0
-4289 -2489 0
-4290 -2490 0
-4291 -2491 0
-4292 -2492 0
-4293 -2493 0
-4294 -2494 0
-4295 -2495 0
-4296 -2496 0
-4297 -2497 0
-4298 -2498 0
-4299 -2499 0
-4300 -2500 0
-4301 -2501 0
-4302 -2502 0
-4303 -2503 0
-4304 -2504 0
-4305 -2505 0
-4306 -2506 0
-4307 -2507 0
-4308 -2508 0
-4309 -2509 0
-4310 -2510 0
-4311 -2511 0
-4312 -2512 0
-4313 -2513 0
-4314 -2514 0
-4315 -2515 0
-4316 -2516 0
-4317 -2517 0
-4318 -2518 0
-4319 -2519 0
-4320 -2520 0
-4261 -2761 0
-4262 -2762 0
-4263 -2763 0
-4264 -2764 0
-4265 -2765 0
-4266 -2766 0
-4267 -2767 0
-4268 -2768 0
-4269 -2769 0
-4270 -2770 0
-4271 -2771 0
-4272 -2772 0
-4273 -2773 0
-4274 -2774 0
-4275 -2775 0
-4276 -2776 0
-4277 -2777 0
-4278 -2778 0
-4279 -2779 0
-4280 -2780 0
-4281 -2781 0
-4282 -2782 0
-4283 -2783 0
-4284 -2784 0
-4285 -2785 0
-4286 -2786 0
-4287 -2787 0
-4288 -2788 0
-4289 -2789 0
-4290 -2790 0
-4291 -2791 0
-4292 -2792 0
-4293 -2793 0
-4294 -2794 0
-4295 -2795 0
-4296 -2796 0
-4297 -2797 0
-4298 -2798 0
-4299 -2799 0
-4300 -2800 0
-4301 -2801 0
-4302 -2802 0
-4303 -2803 0
-4304 -2804 0
-4305 -2805 0
-4306 -2806 0
-4307 -2807 0
-4308 -2808 0
-4309 -2809 0
-4310 -2810 0
-4311 -2811 0
-4312 -2812 0
-4313 -2813 0
-4314 -2814 0
-4315 -2815 0
-4316 -2816 0
-4317 -2817 0
-4318 -2818 0
-4319 -2819 0
-4320 -2820 0
-4261 -2941 0
-4262 -2942 0
-4263 -2943 0
-4264 -2944 0
-4265 -2945 0
-4266 -2946 0
-4267 -2947 0
-4268 -2948 0
-4269 -2949 0
-4270 -2950 0
-4271 -2951 0
-4272 -2952 0
-4273 -2953 0
-4274 -2954 0
-4275 -2955 0
-4276 -2956 0
-4277 -2957 0
-4278 -2958 0
-4279 -2959 0
-4280 -2960 0
-4281 -2961 0
-4282 -2962 0
-4283 -2963 0
-4284 -2964 0
-4285 -2965 0
-4286 -2966 0
-4287 -2967 0
-4288 -2968 0
-4289 -2969 0
-4290 -2970 0
-4291 -2971 0
-4292 -2972 0
-4293 -2973 0
-4294 -2974 0
-4295 -2975 0
-4296 -2976 0
-4297 -2977 0
-4298 -2978 0
-4299 -2979 0
-4300 -2980 0
-4301 -2981 0
-4302 -2982 0
-4303 -2983 0
-4304 -2984 0
-4305 -2985 0
-4306 -2986 0
-4307 -2987 0
-4308 -2988 0
-4309 -2989 0
-4310 -2990 0
-4311 -2991 0
-4312 -2992 0
-4313 -2993 0
-4314 -2994 0
-4315 -2995 0
-4316 -2996 0
-4317 -2997 0
-4318 -2998 0
-4319 -2999 0
-4320 -3000 0
-4261 -3241 0
-4262 -3242 0
-4263 -3243 0
-4264 -3244 0
-4265 -3245 0
-4266 -3246 0
-4267 -3247 0
-4268 -3248 0
-4269 -3249 0
-4270 -3250 0
-4271 -3251 0
-4272 -3252 0
-4273 -3253 0
-4274 -3254 0
-4275 -3255 0
-4276 -3256 0
-4277 -3257 0
-4278 -3258 0
-4279 -3259 0
-4280 -3260 0
-4281 -3261 0
-4282 -3262 0
-4283 -3263 0
-4284 -3264 0
-4285 -3265 0
-4286 -3266 0
-4287 -3267 0
-4288 -3268 0
-4289 -3269 0
-4290 -3270 0
-4291 -3271 0
-4292 -3272 0
-4293 -3273 0
-4294 -3274 0
-4295 -3275 0
-4296 -3276 0
-4297 -3277 0
-4298 -3278 0
-4299 -3279 0
-4300 -3280 0
-4301 -3281 0
-4302 -3282 0
-4303 -3283 0
-4304 -3284 0
-4305 -3285 0
-4306 -3286 0
-4307 -3287 0
-4308 -3288 0
-4309 -3289 0
-4310 -3290 0
-4311 -3291 0
-4312 -3292 0
-4313 -3293 0
-4314 -3294 0
-4315 -3295 0
-4316 -3296 0
-4317 -3297 0
-4318 -3298 0
-4319 -3299 0
-4320 -3300 0
-4261 -3361 0
-4262 -3362 0
-4263 -3363 0
-4264 -3364 0
-4265 -3365 0
-4266 -3366 0
-4267 -3367 0
-4268 -3368 0
-4269 -3369 0
-4270 -3370 0
-4271 -3371 0
-4272 -3372 0
-4273 -3373 0
-4274 -3374 0
-4275 -3375 0
-4276 -3376 0
-4277 -3377 0
-4278 -3378 0
-4279 -3379 0
-4280 -3380 0
-4281 -3381 0
-4282 -3382 0
-4283 -3383 0
-4284 -3384 0
-4285 -3385 0
-4286 -3386 0
-4287 -3387 0
-4288 -3388 0
-4289 -3389 0
-4290 -3390 0
-4291 -3391 0
-4292 -3392 0
-4293 -3393 0
-4294 -3394 0
-4295 -3395 0
-4296 -3396 0
-4297 -3397 0
-4298 -3398 0
-4299 -3399 0
-4300 -3400 0
-4301 -3401 0
-4302 -3402 0
-4303 -3403 0
-4304 -3404 0
-4305 -3405 0
-4306 -3406 0
-4307 -3407 0
-4308 -3408 0
-4309 -3409 0
-4310 -3410 0
-4311 -3411 0
-4312 -3412 0
-4313 -3413 0
-4314 -3414 0
-4315 -3415 0
-4316 -3416 0
-4317 -3417 0
-4318 -3418 0
-4319 -3419 0
-4320 -3420 0
-4261 -3421 0
-4262 -3422 0
-4263 -3423 0
-4264 -3424 0
-4265 -3425 0
-4266 -3426 0
-4267 -3427 0
-4268 -3428 0
-4269 -3429 0
-4270 -3430 0
-4271 -3431 0
-4272 -3432 0
-4273 -3433 0
-4274 -3434 0
-4275 -3435 0
-4276 -3436 0
-4277 -3437 0
-4278 -3438 0
-4279 -3439 0
-4280 -3440 0
-4281 -3441 0
-4282 -3442 0
-4283 -3443 0
-4284 -3444 0
-4285 -3445 0
-4286 -3446 0
-4287 -3447 0
-4288 -3448 0
-4289 -3449 0
-4290 -3450 0
-4291 -3451 0
-4292 -3452 0
-4293 -3453 0
-4294 -3454 0
-4295 -3455 0
-4296 -3456 0
-4297 -3457 0
-4298 -3458 0
-4299 -3459 0
-4300 -3460 0
-4301 -3461 0
-4302 -3462 0
-4303 -3463 0
-4304 -3464 0
-4305 -3465 0
-4306 -3466 0
-4307 -3467 0
-4308 -3468 0
-4309 -3469 0
-4310 -3470 0
-4311 -3471 0
-4312 -3472 0
-4313 -3473 0
-4314 -3474 0
-4315 -3475 0
-4316 -3476 0
-4317 -3477 0
-4318 -3478 0
-4319 -3479 0
-4320 -3480 0
-4261 -3901 0
-4262 -3902 0
-4263 -3903 0
-4264 -3904 0
-4265 -3905 0
-4266 -3906 0
-4267 -3907 0
-4268 -3908 0
-4269 -3909 0
-4270 -3910 0
-4271 -3911 0
-4272 -3912 0
-4273 -3913 0
-4274 -3914 0
-4275 -3915 0
-4276 -3916 0
-4277 -3917 0
-4278 -3918 0
-4279 -3919 0
-4280 -3920 0
-4281 -3921 0
-4282 -3922 0
-4283 -3923 0
-4284 -3924 0
-4285 -3925 0
-4286 -3926 0
-4287 -3927 0
-4288 -3928 0
-4289 -3929 0
-4290 -3930 0
-4291 -3931 0
-4292 -3932 0
-4293 -3933 0
-4294 -3934 0
-4295 -3935 0
-4296 -3936 0
-4297 -3937 0
-4298 -3938 0
-4299 -3939 0
-4300 -3940 0
-4301 -3941 0
-4302 -3942 0
-4303 -3943 0
-4304 -3944 0
-4305 -3945 0
-4306 -3946 0
-4307 -3947 0
-4308 -3948 0
-4309 -3949 0
-4310 -3950 0
-4311 -3951 0
-4312 -3952 0
-4313 -3953 0
-4314 -3954 0
-4315 -3955 0
-4316 -3956 0
-4317 -3957 0
-4318 -3958 0
-4319 -3959 0
-4320 -3960 0
-4261 -4021 0
-4262 -4022 0
-4263 -4023 0
-4264 -4024 0
-4265 -4025 0
-4266 -4026 0
-4267 -4027 0
-4268 -4028 0
-4269 -4029 0
-4270 -4030 0
-4271 -4031 0
-4272 -4032 0
-4273 -4033 0
-4274 -4034 0
-4275 -4035 0
-4276 -4036 0
-4277 -4037 0
-4278 -4038 0
-4279 -4039 0
-4280 -4040 0
-4281 -4041 0
-4282 -4042 0
-4283 -4043 0
-4284 -4044 0
-4285 -4045 0
-4286 -4046 0
-4287 -4047 0
-4288 -4048 0
-4289 -4049 0
-4290 -4050 0
-4291 -4051 0
-4292 -4052 0
-4293 -4053 0
-4294 -4054 0
-4295 -4055 0
-4296 -4056 0
-4297 -4057 0
-4298 -4058 0
-4299 -4059 0
-4300 -4060 0
-4301 -4061 0
-4302 -4062 0
-4303 -4063 0
-4304 -4064 0
-4305 -4065 0
-4306 -4066 0
-4307 -4067 0
-4308 -4068 0
-4309 -4069 0
-4310 -4070 0
-4311 -4071 0
-4312 -4072 0
-4313 -4073 0
-4314 -4074 0
-4315 -4075 0
-4316 -4076 0
-4317 -4077 0
-4318 -4078 0
-4319 -4079 0
-4320 -4080 0
-4261 -4681 0
-4262 -4682 0
-4263 -4683 0
-4264 -4684 0
-4265 -4685 0
-4266 -4686 0
-4267 -4687 0
-4268 -4688 0
-4269 -4689 0
-4270 -4690 0
-4271 -4691 0
-4272 -4692 0
-4273 -4693 0
-4274 -4694 0
-4275 -4695 0
-4276 -4696 0
-4277 -4697 0
-4278 -4698 0
-4279 -4699 0
-4280 -4700 0
-4281 -4701 0
-4282 -4702 0
-4283 -4703 0
-4284 -4704 0
-4285 -4705 0
-4286 -4706 0
-4287 -4707 0
-4288 -4708 0
-4289 -4709 0
-4290 -4710 0
-4291 -4711 0
-4292 -4712 0
-4293 -4713 0
-4294 -4714 0
-4295 -4715 0
-4296 -4716 0
-4297 -4717 0
-4298 -4718 0
-4299 -4719 0
-4300 -4720 0
-4301 -4721 0
-4302 -4722 0
-4303 -4723 0
-4304 -4724 0
-4305 -4725 0
-4306 -4726 0
-4307 -4727 0
-4308 -4728 0
-4309 -4729 0
-4310 -4730 0
-4311 -4731 0
-4312 -4732 0
-4313 -4733 0
-4314 -4734 0
-4315 -4735 0
-4316 -4736 0
-4317 -4737 0
-4318 -4738 0
-4319 -4739 0
-4320 -4740 0
-4321 -121 0
-4322 -122 0
-4323 -123 0
-4324 -124 0
-4325 -125 0
-4326 -126 0
-4327 -127 0
-4328 -128 0
-4329 -129 0
-4330 -130 0
-4331 -131 0
-4332 -132 0
-4333 -133 0
-4334 -134 0
-4335 -135 0
-4336 -136 0
-4337 -137 0
-4338 -138 0
-4339 -139 0
-4340 -140 0
-4341 -141 0
-4342 -142 0
-4343 -143 0
-4344 -144 0
-4345 -145 0
-4346 -146 0
-4347 -147 0
-4348 -148 0
-4349 -149 0
-4350 -150 0
-4351 -151 0
-4352 -152 0
-4353 -153 0
-4354 -154 0
-4355 -155 0
-4356 -156 0
-4357 -157 0
-4358 -158 0
-4359 -159 0
-4360 -160 0
-4361 -161 0
-4362 -162 0
-4363 -163 0
-4364 -164 0
-4365 -165 0
-4366 -166 0
-4367 -167 0
-4368 -168 0
-4369 -169 0
-4370 -170 0
-4371 -171 0
-4372 -172 0
-4373 -173 0
-4374 -174 0
-4375 -175 0
-4376 -176 0
-4377 -177 0
-4378 -178 0
-4379 -179 0
-4380 -180 0
-4321 -1441 0
-4322 -1442 0
-4323 -1443 0
-4324 -1444 0
-4325 -1445 0
-4326 -1446 0
-4327 -1447 0
-4328 -1448 0
-4329 -1449 0
-4330 -1450 0
-4331 -1451 0
-4332 -1452 0
-4333 -1453 0
-4334 -1454 0
-4335 -1455 0
-4336 -1456 0
-4337 -1457 0
-4338 -1458 0
-4339 -1459 0
-4340 -1460 0
-4341 -1461 0
-4342 -1462 0
-4343 -1463 0
-4344 -1464 0
-4345 -1465 0
-4346 -1466 0
-4347 -1467 0
-4348 -1468 0
-4349 -1469 0
-4350 -1470 0
-4351 -1471 0
-4352 -1472 0
-4353 -1473 0
-4354 -1474 0
-4355 -1475 0
-4356 -1476 0
-4357 -1477 0
-4358 -1478 0
-4359 -1479 0
-4360 -1480 0
-4361 -1481 0
-4362 -1482 0
-4363 -1483 0
-4364 -1484 0
-4365 -1485 0
-4366 -1486 0
-4367 -1487 0
-4368 -1488 0
-4369 -1489 0
-4370 -1490 0
-4371 -1491 0
-4372 -1492 0
-4373 -1493 0
-4374 -1494 0
-4375 -1495 0
-4376 -1496 0
-4377 -1497 0
-4378 -1498 0
-4379 -1499 0
-4380 -1500 0
-4321 -1561 0
-4322 -1562 0
-4323 -1563 0
-4324 -1564 0
-4325 -1565 0
-4326 -1566 0
-4327 -1567 0
-4328 -1568 0
-4329 -1569 0
-4330 -1570 0
-4331 -1571 0
-4332 -1572 0
-4333 -1573 0
-4334 -1574 0
-4335 -1575 0
-4336 -1576 0
-4337 -1577 0
-4338 -1578 0
-4339 -1579 0
-4340 -1580 0
-4341 -1581 0
-4342 -1582 0
-4343 -1583 0
-4344 -1584 0
-4345 -1585 0
-4346 -1586 0
-4347 -1587 0
-4348 -1588 0
-4349 -1589 0
-4350 -1590 0
-4351 -1591 0
-4352 -1592 0
-4353 -1593 0
-4354 -1594 0
-4355 -1595 0
-4356 -1596 0
-4357 -1597 0
-4358 -1598 0
-4359 -1599 0
-4360 -1600 0
-4361 -1601 0
-4362 -1602 0
-4363 -1603 0
-4364 -1604 0
-4365 -1605 0
-4366 -1606 0
-4367 -1607 0
-4368 -1608 0
-4369 -1609 0
-4370 -1610 0
-4371 -1611 0
-4372 -1612 0
-4373 -1613 0
-4374 -1614 0
-4375 -1615 0
-4376 -1616 0
-4377 -1617 0
-4378 -1618 0
-4379 -1619 0
-4380 -1620 0
-4321 -1921 0
-4322 -1922 0
-4323 -1923 0
-4324 -1924 0
-4325 -1925 0
-4326 -1926 0
-4327 -1927 0
-4328 -1928 0
-4329 -1929 0
-4330 -1930 0
-4331 -1931 0
-4332 -1932 0
-4333 -1933 0
-4334 -1934 0
-4335 -1935 0
-4336 -1936 0
-4337 -1937 0
-4338 -1938 0
-4339 -1939 0
-4340 -1940 0
-4341 -1941 0
-4342 -1942 0
-4343 -1943 0
-4344 -1944 0
-4345 -1945 0
-4346 -1946 0
-4347 -1947 0
-4348 -1948 0
-4349 -1949 0
-4350 -1950 0
-4351 -1951 0
-4352 -1952 0
-4353 -1953 0
-4354 -1954 0
-4355 -1955 0
-4356 -1956 0
-4357 -1957 0
-4358 -1958 0
-4359 -1959 0
-4360 -1960 0
-4361 -1961 0
-4362 -1962 0
-4363 -1963 0
-4364 -1964 0
-4365 -1965 0
-4366 -1966 0
-4367 -1967 0
-4368 -1968 0
-4369 -1969 0
-4370 -1970 0
-4371 -1971 0
-4372 -1972 0
-4373 -1973 0
-4374 -1974 0
-4375 -1975 0
-4376 -1976 0
-4377 -1977 0
-4378 -1978 0
-4379 -1979 0
-4380 -1980 0
-4321 -2341 0
-4322 -2342 0
-4323 -2343 0
-4324 -2344 0
-4325 -2345 0
-4326 -2346 0
-4327 -2347 0
-4328 -2348 0
-4329 -2349 0
-4330 -2350 0
-4331 -2351 0
-4332 -2352 0
-4333 -2353 0
-4334 -2354 0
-4335 -2355 0
-4336 -2356 0
-4337 -2357 0
-4338 -2358 0
-4339 -2359 0
-4340 -2360 0
-4341 -2361 0
-4342 -2362 0
-4343 -2363 0
-4344 -2364 0
-4345 -2365 0
-4346 -2366 0
-4347 -2367 0
-4348 -2368 0
-4349 -2369 0
-4350 -2370 0
-4351 -2371 0
-4352 -2372 0
-4353 -2373 0
-4354 -2374 0
-4355 -2375 0
-4356 -2376 0
-4357 -2377 0
-4358 -2378 0
-4359 -2379 0
-4360 -2380 0
-4361 -2381 0
-4362 -2382 0
-4363 -2383 0
-4364 -2384 0
-4365 -2385 0
-4366 -2386 0
-4367 -2387 0
-4368 -2388 0
-4369 -2389 0
-4370 -2390 0
-4371 -2391 0
-4372 -2392 0
-4373 -2393 0
-4374 -2394 0
-4375 -2395 0
-4376 -2396 0
-4377 -2397 0
-4378 -2398 0
-4379 -2399 0
-4380 -2400 0
-4321 -3721 0
-4322 -3722 0
-4323 -3723 0
-4324 -3724 0
-4325 -3725 0
-4326 -3726 0
-4327 -3727 0
-4328 -3728 0
-4329 -3729 0
-4330 -3730 0
-4331 -3731 0
-4332 -3732 0
-4333 -3733 0
-4334 -3734 0
-4335 -3735 0
-4336 -3736 0
-4337 -3737 0
-4338 -3738 0
-4339 -3739 0
-4340 -3740 0
-4341 -3741 0
-4342 -3742 0
-4343 -3743 0
-4344 -3744 0
-4345 -3745 0
-4346 -3746 0
-4347 -3747 0
-4348 -3748 0
-4349 -3749 0
-4350 -3750 0
-4351 -3751 0
-4352 -3752 0
-4353 -3753 0
-4354 -3754 0
-4355 -3755 0
-4356 -3756 0
-4357 -3757 0
-4358 -3758 0
-4359 -3759 0
-4360 -3760 0
-4361 -3761 0
-4362 -3762 0
-4363 -3763 0
-4364 -3764 0
-4365 -3765 0
-4366 -3766 0
-4367 -3767 0
-4368 -3768 0
-4369 -3769 0
-4370 -3770 0
-4371 -3771 0
-4372 -3772 0
-4373 -3773 0
-4374 -3774 0
-4375 -3775 0
-4376 -3776 0
-4377 -3777 0
-4378 -3778 0
-4379 -3779 0
-4380 -3780 0
-4321 -4081 0
-4322 -4082 0
-4323 -4083 0
-4324 -4084 0
-4325 -4085 0
-4326 -4086 0
-4327 -4087 0
-4328 -4088 0
-4329 -4089 0
-4330 -4090 0
-4331 -4091 0
-4332 -4092 0
-4333 -4093 0
-4334 -4094 0
-4335 -4095 0
-4336 -4096 0
-4337 -4097 0
-4338 -4098 0
-4339 -4099 0
-4340 -4100 0
-4341 -4101 0
-4342 -4102 0
-4343 -4103 0
-4344 -4104 0
-4345 -4105 0
-4346 -4106 0
-4347 -4107 0
-4348 -4108 0
-4349 -4109 0
-4350 -4110 0
-4351 -4111 0
-4352 -4112 0
-4353 -4113 0
-4354 -4114 0
-4355 -4115 0
-4356 -4116 0
-4357 -4117 0
-4358 -4118 0
-4359 -4119 0
-4360 -4120 0
-4361 -4121 0
-4362 -4122 0
-4363 -4123 0
-4364 -4124 0
-4365 -4125 0
-4366 -4126 0
-4367 -4127 0
-4368 -4128 0
-4369 -4129 0
-4370 -4130 0
-4371 -4131 0
-4372 -4132 0
-4373 -4133 0
-4374 -4134 0
-4375 -4135 0
-4376 -4136 0
-4377 -4137 0
-4378 -4138 0
-4379 -4139 0
-4380 -4140 0
-4381 -2581 0
-4382 -2582 0
-4383 -2583 0
-4384 -2584 0
-4385 -2585 0
-4386 -2586 0
-4387 -2587 0
-4388 -2588 0
-4389 -2589 0
-4390 -2590 0
-4391 -2591 0
-4392 -2592 0
-4393 -2593 0
-4394 -2594 0
-4395 -2595 0
-4396 -2596 0
-4397 -2597 0
-4398 -2598 0
-4399 -2599 0
-4400 -2600 0
-4401 -2601 0
-4402 -2602 0
-4403 -2603 0
-4404 -2604 0
-4405 -2605 0
-4406 -2606 0
-4407 -2607 0
-4408 -2608 0
-4409 -2609 0
-4410 -2610 0
-4411 -2611 0
-4412 -2612 0
-4413 -2613 0
-4414 -2614 0
-4415 -2615 0
-4416 -2616 0
-4417 -2617 0
-4418 -2618 0
-4419 -2619 0
-4420 -2620 0
-4421 -2621 0
-4422 -2622 0
-4423 -2623 0
-4424 -2624 0
-4425 -2625 0
-4426 -2626 0
-4427 -2627 0
-4428 -2628 0
-4429 -2629 0
-4430 -2630 0
-4431 -2631 0
-4432 -2632 0
-4433 -2633 0
-4434 -2634 0
-4435 -2635 0
-4436 -2636 0
-4437 -2637 0
-4438 -2638 0
-4439 -2639 0
-4440 -2640 0
-4381 -4561 0
-4382 -4562 0
-4383 -4563 0
-4384 -4564 0
-4385 -4565 0
-4386 -4566 0
-4387 -4567 0
-4388 -4568 0
-4389 -4569 0
-4390 -4570 0
-4391 -4571 0
-4392 -4572 0
-4393 -4573 0
-4394 -4574 0
-4395 -4575 0
-4396 -4576 0
-4397 -4577 0
-4398 -4578 0
-4399 -4579 0
-4400 -4580 0
-4401 -4581 0
-4402 -4582 0
-4403 -4583 0
-4404 -4584 0
-4405 -4585 0
-4406 -4586 0
-4407 -4587 0
-4408 -4588 0
-4409 -4589 0
-4410 -4590 0
-4411 -4591 0
-4412 -4592 0
-4413 -4593 0
-4414 -4594 0
-4415 -4595 0
-4416 -4596 0
-4417 -4597 0
-4418 -4598 0
-4419 -4599 0
-4420 -4600 0
-4421 -4601 0
-4422 -4602 0
-4423 -4603 0
-4424 -4604 0
-4425 -4605 0
-4426 -4606 0
-4427 -4607 0
-4428 -4608 0
-4429 -4609 0
-4430 -4610 0
-4431 -4611 0
-4432 -4612 0
-4433 -4613 0
-4434 -4614 0
-4435 -4615 0
-4436 -4616 0
-4437 -4617 0
-4438 -4618 0
-4439 -4619 0
-4440 -4620 0
-4441 -61 0
-4442 -62 0
-4443 -63 0
-4444 -64 0
-4445 -65 0
-4446 -66 0
-4447 -67 0
-4448 -68 0
-4449 -69 0
-4450 -70 0
-4451 -71 0
-4452 -72 0
-4453 -73 0
-4454 -74 0
-4455 -75 0
-4456 -76 0
-4457 -77 0
-4458 -78 0
-4459 -79 0
-4460 -80 0
-4461 -81 0
-4462 -82 0
-4463 -83 0
-4464 -84 0
-4465 -85 0
-4466 -86 0
-4467 -87 0
-4468 -88 0
-4469 -89 0
-4470 -90 0
-4471 -91 0
-4472 -92 0
-4473 -93 0
-4474 -94 0
-4475 -95 0
-4476 -96 0
-4477 -97 0
-4478 -98 0
-4479 -99 0
-4480 -100 0
-4481 -101 0
-4482 -102 0
-4483 -103 0
-4484 -104 0
-4485 -105 0
-4486 -106 0
-4487 -107 0
-4488 -108 0
-4489 -109 0
-4490 -110 0
-4491 -111 0
-4492 -112 0
-4493 -113 0
-4494 -114 0
-4495 -115 0
-4496 -116 0
-4497 -117 0
-4498 -118 0
-4499 -119 0
-4500 -120 0
-4441 -781 0
-4442 -782 0
-4443 -783 0
-4444 -784 0
-4445 -785 0
-4446 -786 0
-4447 -787 0
-4448 -788 0
-4449 -789 0
-4450 -790 0
-4451 -791 0
-4452 -792 0
-4453 -793 0
-4454 -794 0
-4455 -795 0
-4456 -796 0
-4457 -797 0
-4458 -798 0
-4459 -799 0
-4460 -800 0
-4461 -801 0
-4462 -802 0
-4463 -803 0
-4464 -804 0
-4465 -805 0
-4466 -806 0
-4467 -807 0
-4468 -808 0
-4469 -809 0
-4470 -810 0
-4471 -811 0
-4472 -812 0
-4473 -813 0
-4474 -814 0
-4475 -815 0
-4476 -816 0
-4477 -817 0
-4478 -818 0
-4479 -819 0
-4480 -820 0
-4481 -821 0
-4482 -822 0
-4483 -823 0
-4484 -824 0
-4485 -825 0
-4486 -826 0
-4487 -827 0
-4488 -828 0
-4489 -829 0
-4490 -830 0
-4491 -831 0
-4492 -832 0
-4493 -833 0
-4494 -834 0
-4495 -835 0
-4496 -836 0
-4497 -837 0
-4498 -838 0
-4499 -839 0
-4500 -840 0
-4441 -2161 0
-4442 -2162 0
-4443 -2163 0
-4444 -2164 0
-4445 -2165 0
-4446 -2166 0
-4447 -2167 0
-4448 -2168 0
-4449 -2169 0
-4450 -2170 0
-4451 -2171 0
-4452 -2172 0
-4453 -2173 0
-4454 -2174 0
-4455 -2175 0
-4456 -2176 0
-4457 -2177 0
-4458 -2178 0
-4459 -2179 0
-4460 -2180 0
-4461 -2181 0
-4462 -2182 0
-4463 -2183 0
-4464 -2184 0
-4465 -2185 0
-4466 -2186 0
-4467 -2187 0
-4468 -2188 0
-4469 -2189 0
-4470 -2190 0
-4471 -2191 0
-4472 -2192 0
-4473 -2193 0
-4474 -2194 0
-4475 -2195 0
-4476 -2196 0
-4477 -2197 0
-4478 -2198 0
-4479 -2199 0
-4480 -2200 0
-4481 -2201 0
-4482 -2202 0
-4483 -2203 0
-4484 -2204 0
-4485 -2205 0
-4486 -2206 0
-4487 -2207 0
-4488 -2208 0
-4489 -2209 0
-4490 -2210 0
-4491 -2211 0
-4492 -2212 0
-4493 -2213 0
-4494 -2214 0
-4495 -2215 0
-4496 -2216 0
-4497 -2217 0
-4498 -2218 0
-4499 -2219 0
-4500 -2220 0
-4501 -841 0
-4502 -842 0
-4503 -843 0
-4504 -844 0
-4505 -845 0
-4506 -846 0
-4507 -847 0
-4508 -848 0
-4509 -849 0
-4510 -850 0
-4511 -851 0
-4512 -852 0
-4513 -853 0
-4514 -854 0
-4515 -855 0
-4516 -856 0
-4517 -857 0
-4518 -858 0
-4519 -859 0
-4520 -860 0
-4521 -861 0
-4522 -862 0
-4523 -863 0
-4524 -864 0
-4525 -865 0
-4526 -866 0
-4527 -867 0
-4528 -868 0
-4529 -869 0
-4530 -870 0
-4531 -871 0
-4532 -872 0
-4533 -873 0
-4534 -874 0
-4535 -875 0
-4536 -876 0
-4537 -877 0
-4538 -878 0
-4539 -879 0
-4540 -880 0
-4541 -881 0
-4542 -882 0
-4543 -883 0
-4544 -884 0
-4545 -885 0
-4546 -886 0
-4547 -887 0
-4548 -888 0
-4549 -889 0
-4550 -890 0
-4551 -891 0
-4552 -892 0
-4553 -893 0
-4554 -894 0
-4555 -895 0
-4556 -896 0
-4557 -897 0
-4558 -898 0
-4559 -899 0
-4560 -900 0
-4501 -2641 0
-4502 -2642 0
-4503 -2643 0
-4504 -2644 0
-4505 -2645 0
-4506 -2646 0
-4507 -2647 0
-4508 -2648 0
-4509 -2649 0
-4510 -2650 0
-4511 -2651 0
-4512 -2652 0
-4513 -2653 0
-4514 -2654 0
-4515 -2655 0
-4516 -2656 0
-4517 -2657 0
-4518 -2658 0
-4519 -2659 0
-4520 -2660 0
-4521 -2661 0
-4522 -2662 0
-4523 -2663 0
-4524 -2664 0
-4525 -2665 0
-4526 -2666 0
-4527 -2667 0
-4528 -2668 0
-4529 -2669 0
-4530 -2670 0
-4531 -2671 0
-4532 -2672 0
-4533 -2673 0
-4534 -2674 0
-4535 -2675 0
-4536 -2676 0
-4537 -2677 0
-4538 -2678 0
-4539 -2679 0
-4540 -2680 0
-4541 -2681 0
-4542 -2682 0
-4543 -2683 0
-4544 -2684 0
-4545 -2685 0
-4546 -2686 0
-4547 -2687 0
-4548 -2688 0
-4549 -2689 0
-4550 -2690 0
-4551 -2691 0
-4552 -2692 0
-4553 -2693 0
-4554 -2694 0
-4555 -2695 0
-4556 -2696 0
-4557 -2697 0
-4558 -2698 0
-4559 -2699 0
-4560 -2700 0
-4501 -3361 0
-4502 -3362 0
-4503 -3363 0
-4504 -3364 0
-4505 -3365 0
-4506 -3366 0
-4507 -3367 0
-4508 -3368 0
-4509 -3369 0
-4510 -3370 0
-4511 -3371 0
-4512 -3372 0
-4513 -3373 0
-4514 -3374 0
-4515 -3375 0
-4516 -3376 0
-4517 -3377 0
-4518 -3378 0
-4519 -3379 0
-4520 -3380 0
-4521 -3381 0
-4522 -3382 0
-4523 -3383 0
-4524 -3384 0
-4525 -3385 0
-4526 -3386 0
-4527 -3387 0
-4528 -3388 0
-4529 -3389 0
-4530 -3390 0
-4531 -3391 0
-4532 -3392 0
-4533 -3393 0
-4534 -3394 0
-4535 -3395 0
-4536 -3396 0
-4537 -3397 0
-4538 -3398 0
-4539 -3399 0
-4540 -3400 0
-4541 -3401 0
-4542 -3402 0
-4543 -3403 0
-4544 -3404 0
-4545 -3405 0
-4546 -3406 0
-4547 -3407 0
-4548 -3408 0
-4549 -3409 0
-4550 -3410 0
-4551 -3411 0
-4552 -3412 0
-4553 -3413 0
-4554 -3414 0
-4555 -3415 0
-4556 -3416 0
-4557 -3417 0
-4558 -3418 0
-4559 -3419 0
-4560 -3420 0
-4561 -841 0
-4562 -842 0
-4563 -843 0
-4564 -844 0
-4565 -845 0
-4566 -846 0
-4567 -847 0
-4568 -848 0
-4569 -849 0
-4570 -850 0
-4571 -851 0
-4572 -852 0
-4573 -853 0
-4574 -854 0
-4575 -855 0
-4576 -856 0
-4577 -857 0
-4578 -858 0
-4579 -859 0
-4580 -860 0
-4581 -861 0
-4582 -862 0
-4583 -863 0
-4584 -864 0
-4585 -865 0
-4586 -866 0
-4587 -867 0
-4588 -868 0
-4589 -869 0
-4590 -870 0
-4591 -871 0
-4592 -872 0
-4593 -873 0
-4594 -874 0
-4595 -875 0
-4596 -876 0
-4597 -877 0
-4598 -878 0
-4599 -879 0
-4600 -880 0
-4601 -881 0
-4602 -882 0
-4603 -883 0
-4604 -884 0
-4605 -885 0
-4606 -886 0
-4607 -887 0
-4608 -888 0
-4609 -889 0
-4610 -890 0
-4611 -891 0
-4612 -892 0
-4613 -893 0
-4614 -894 0
-4615 -895 0
-4616 -896 0
-4617 -897 0
-4618 -898 0
-4619 -899 0
-4620 -900 0
-4561 -1321 0
-4562 -1322 0
-4563 -1323 0
-4564 -1324 0
-4565 -1325 0
-4566 -1326 0
-4567 -1327 0
-4568 -1328 0
-4569 -1329 0
-4570 -1330 0
-4571 -1331 0
-4572 -1332 0
-4573 -1333 0
-4574 -1334 0
-4575 -1335 0
-4576 -1336 0
-4577 -1337 0
-4578 -1338 0
-4579 -1339 0
-4580 -1340 0
-4581 -1341 0
-4582 -1342 0
-4583 -1343 0
-4584 -1344 0
-4585 -1345 0
-4586 -1346 0
-4587 -1347 0
-4588 -1348 0
-4589 -1349 0
-4590 -1350 0
-4591 -1351 0
-4592 -1352 0
-4593 -1353 0
-4594 -1354 0
-4595 -1355 0
-4596 -1356 0
-4597 -1357 0
-4598 -1358 0
-4599 -1359 0
-4600 -1360 0
-4601 -1361 0
-4602 -1362 0
-4603 -1363 0
-4604 -1364 0
-4605 -1365 0
-4606 -1366 0
-4607 -1367 0
-4608 -1368 0
-4609 -1369 0
-4610 -1370 0
-4611 -1371 0
-4612 -1372 0
-4613 -1373 0
-4614 -1374 0
-4615 -1375 0
-4616 -1376 0
-4617 -1377 0
-4618 -1378 0
-4619 -1379 0
-4620 -1380 0
-4561 -1501 0
-4562 -1502 0
-4563 -1503 0
-4564 -1504 0
-4565 -1505 0
-4566 -1506 0
-4567 -1507 0
-4568 -1508 0
-4569 -1509 0
-4570 -1510 0
-4571 -1511 0
-4572 -1512 0
-4573 -1513 0
-4574 -1514 0
-4575 -1515 0
-4576 -1516 0
-4577 -1517 0
-4578 -1518 0
-4579 -1519 0
-4580 -1520 0
-4581 -1521 0
-4582 -1522 0
-4583 -1523 0
-4584 -1524 0
-4585 -1525 0
-4586 -1526 0
-4587 -1527 0
-4588 -1528 0
-4589 -1529 0
-4590 -1530 0
-4591 -1531 0
-4592 -1532 0
-4593 -1533 0
-4594 -1534 0
-4595 -1535 0
-4596 -1536 0
-4597 -1537 0
-4598 -1538 0
-4599 -1539 0
-4600 -1540 0
-4601 -1541 0
-4602 -1542 0
-4603 -1543 0
-4604 -1544 0
-4605 -1545 0
-4606 -1546 0
-4607 -1547 0
-4608 -1548 0
-4609 -1549 0
-4610 -1550 0
-4611 -1551 0
-4612 -1552 0
-4613 -1553 0
-4614 -1554 0
-4615 -1555 0
-4616 -1556 0
-4617 -1557 0
-4618 -1558 0
-4619 -1559 0
-4620 -1560 0
-4561 -1681 0
-4562 -1682 0
-4563 -1683 0
-4564 -1684 0
-4565 -1685 0
-4566 -1686 0
-4567 -1687 0
-4568 -1688 0
-4569 -1689 0
-4570 -1690 0
-4571 -1691 0
-4572 -1692 0
-4573 -1693 0
-4574 -1694 0
-4575 -1695 0
-4576 -1696 0
-4577 -1697 0
-4578 -1698 0
-4579 -1699 0
-4580 -1700 0
-4581 -1701 0
-4582 -1702 0
-4583 -1703 0
-4584 -1704 0
-4585 -1705 0
-4586 -1706 0
-4587 -1707 0
-4588 -1708 0
-4589 -1709 0
-4590 -1710 0
-4591 -1711 0
-4592 -1712 0
-4593 -1713 0
-4594 -1714 0
-4595 -1715 0
-4596 -1716 0
-4597 -1717 0
-4598 -1718 0
-4599 -1719 0
-4600 -1720 0
-4601 -1721 0
-4602 -1722 0
-4603 -1723 0
-4604 -1724 0
-4605 -1725 0
-4606 -1726 0
-4607 -1727 0
-4608 -1728 0
-4609 -1729 0
-4610 -1730 0
-4611 -1731 0
-4612 -1732 0
-4613 -1733 0
-4614 -1734 0
-4615 -1735 0
-4616 -1736 0
-4617 -1737 0
-4618 -1738 0
-4619 -1739 0
-4620 -1740 0
-4561 -2161 0
-4562 -2162 0
-4563 -2163 0
-4564 -2164 0
-4565 -2165 0
-4566 -2166 0
-4567 -2167 0
-4568 -2168 0
-4569 -2169 0
-4570 -2170 0
-4571 -2171 0
-4572 -2172 0
-4573 -2173 0
-4574 -2174 0
-4575 -2175 0
-4576 -2176 0
-4577 -2177 0
-4578 -2178 0
-4579 -2179 0
-4580 -2180 0
-4581 -2181 0
-4582 -2182 0
-4583 -2183 0
-4584 -2184 0
-4585 -2185 0
-4586 -2186 0
-4587 -2187 0
-4588 -2188 0
-4589 -2189 0
-4590 -2190 0
-4591 -2191 0
-4592 -2192 0
-4593 -2193 0
-4594 -2194 0
-4595 -2195 0
-4596 -2196 0
-4597 -2197 0
-4598 -2198 0
-4599 -2199 0
-4600 -2200 0
-4601 -2201 0
-4602 -2202 0
-4603 -2203 0
-4604 -2204 0
-4605 -2205 0
-4606 -2206 0
-4607 -2207 0
-4608 -2208 0
-4609 -2209 0
-4610 -2210 0
-4611 -2211 0
-4612 -2212 0
-4613 -2213 0
-4614 -2214 0
-4615 -2215 0
-4616 -2216 0
-4617 -2217 0
-4618 -2218 0
-4619 -2219 0
-4620 -2220 0
-4561 -3481 0
-4562 -3482 0
-4563 -3483 0
-4564 -3484 0
-4565 -3485 0
-4566 -3486 0
-4567 -3487 0
-4568 -3488 0
-4569 -3489 0
-4570 -3490 0
-4571 -3491 0
-4572 -3492 0
-4573 -3493 0
-4574 -3494 0
-4575 -3495 0
-4576 -3496 0
-4577 -3497 0
-4578 -3498 0
-4579 -3499 0
-4580 -3500 0
-4581 -3501 0
-4582 -3502 0
-4583 -3503 0
-4584 -3504 0
-4585 -3505 0
-4586 -3506 0
-4587 -3507 0
-4588 -3508 0
-4589 -3509 0
-4590 -3510 0
-4591 -3511 0
-4592 -3512 0
-4593 -3513 0
-4594 -3514 0
-4595 -3515 0
-4596 -3516 0
-4597 -3517 0
-4598 -3518 0
-4599 -3519 0
-4600 -3520 0
-4601 -3521 0
-4602 -3522 0
-4603 -3523 0
-4604 -3524 0
-4605 -3525 0
-4606 -3526 0
-4607 -3527 0
-4608 -3528 0
-4609 -3529 0
-4610 -3530 0
-4611 -3531 0
-4612 -3532 0
-4613 -3533 0
-4614 -3534 0
-4615 -3535 0
-4616 -3536 0
-4617 -3537 0
-4618 -3538 0
-4619 -3539 0
-4620 -3540 0
-4561 -4381 0
-4562 -4382 0
-4563 -4383 0
-4564 -4384 0
-4565 -4385 0
-4566 -4386 0
-4567 -4387 0
-4568 -4388 0
-4569 -4389 0
-4570 -4390 0
-4571 -4391 0
-4572 -4392 0
-4573 -4393 0
-4574 -4394 0
-4575 -4395 0
-4576 -4396 0
-4577 -4397 0
-4578 -4398 0
-4579 -4399 0
-4580 -4400 0
-4581 -4401 0
-4582 -4402 0
-4583 -4403 0
-4584 -4404 0
-4585 -4405 0
-4586 -4406 0
-4587 -4407 0
-4588 -4408 0
-4589 -4409 0
-4590 -4410 0
-4591 -4411 0
-4592 -4412 0
-4593 -4413 0
-4594 -4414 0
-4595 -4415 0
-4596 -4416 0
-4597 -4417 0
-4598 -4418 0
-4599 -4419 0
-4600 -4420 0
-4601 -4421 0
-4602 -4422 0
-4603 -4423 0
-4604 -4424 0
-4605 -4425 0
-4606 -4426 0
-4607 -4427 0
-4608 -4428 0
-4609 -4429 0
-4610 -4430 0
-4611 -4431 0
-4612 -4432 0
-4613 -4433 0
-4614 -4434 0
-4615 -4435 0
-4616 -4436 0
-4617 -4437 0
-4618 -4438 0
-4619 -4439 0
-4620 -4440 0
-4621 -2161 0
-4622 -2162 0
-4623 -2163 0
-4624 -2164 0
-4625 -2165 0
-4626 -2166 0
-4627 -2167 0
-4628 -2168 0
-4629 -2169 0
-4630 -2170 0
-4631 -2171 0
-4632 -2172 0
-4633 -2173 0
-4634 -2174 0
-4635 -2175 0
-4636 -2176 0
-4637 -2177 0
-4638 -2178 0
-4639 -2179 0
-4640 -2180 0
-4641 -2181 0
-4642 -2182 0
-4643 -2183 0
-4644 -2184 0
-4645 -2185 0
-4646 -2186 0
-4647 -2187 0
-4648 -2188 0
-4649 -2189 0
-4650 -2190 0
-4651 -2191 0
-4652 -2192 0
-4653 -2193 0
-4654 -2194 0
-4655 -2195 0
-4656 -2196 0
-4657 -2197 0
-4658 -2198 0
-4659 -2199 0
-4660 -2200 0
-4661 -2201 0
-4662 -2202 0
-4663 -2203 0
-4664 -2204 0
-4665 -2205 0
-4666 -2206 0
-4667 -2207 0
-4668 -2208 0
-4669 -2209 0
-4670 -2210 0
-4671 -2211 0
-4672 -2212 0
-4673 -2213 0
-4674 -2214 0
-4675 -2215 0
-4676 -2216 0
-4677 -2217 0
-4678 -2218 0
-4679 -2219 0
-4680 -2220 0
-4621 -2521 0
-4622 -2522 0
-4623 -2523 0
-4624 -2524 0
-4625 -2525 0
-4626 -2526 0
-4627 -2527 0
-4628 -2528 0
-4629 -2529 0
-4630 -2530 0
-4631 -2531 0
-4632 -2532 0
-4633 -2533 0
-4634 -2534 0
-4635 -2535 0
-4636 -2536 0
-4637 -2537 0
-4638 -2538 0
-4639 -2539 0
-4640 -2540 0
-4641 -2541 0
-4642 -2542 0
-4643 -2543 0
-4644 -2544 0
-4645 -2545 0
-4646 -2546 0
-4647 -2547 0
-4648 -2548 0
-4649 -2549 0
-4650 -2550 0
-4651 -2551 0
-4652 -2552 0
-4653 -2553 0
-4654 -2554 0
-4655 -2555 0
-4656 -2556 0
-4657 -2557 0
-4658 -2558 0
-4659 -2559 0
-4660 -2560 0
-4661 -2561 0
-4662 -2562 0
-4663 -2563 0
-4664 -2564 0
-4665 -2565 0
-4666 -2566 0
-4667 -2567 0
-4668 -2568 0
-4669 -2569 0
-4670 -2570 0
-4671 -2571 0
-4672 -2572 0
-4673 -2573 0
-4674 -2574 0
-4675 -2575 0
-4676 -2576 0
-4677 -2577 0
-4678 -2578 0
-4679 -2579 0
-4680 -2580 0
-4681 -181 0
-4682 -182 0
-4683 -183 0
-4684 -184 0
-4685 -185 0
-4686 -186 0
-4687 -187 0
-4688 -188 0
-4689 -189 0
-4690 -190 0
-4691 -191 0
-4692 -192 0
-4693 -193 0
-4694 -194 0
-4695 -195 0
-4696 -196 0
-4697 -197 0
-4698 -198 0
-4699 -199 0
-4700 -200 0
-4701 -201 0
-4702 -202 0
-4703 -203 0
-4704 -204 0
-4705 -205 0
-4706 -206 0
-4707 -207 0
-4708 -208 0
-4709 -209 0
-4710 -210 0
-4711 -211 0
-4712 -212 0
-4713 -213 0
-4714 -214 0
-4715 -215 0
-4716 -216 0
-4717 -217 0
-4718 -218 0
-4719 -219 0
-4720 -220 0
-4721 -221 0
-4722 -222 0
-4723 -223 0
-4724 -224 0
-4725 -225 0
-4726 -226 0
-4727 -227 0
-4728 -228 0
-4729 -229 0
-4730 -230 0
-4731 -231 0
-4732 -232 0
-4733 -233 0
-4734 -234 0
-4735 -235 0
-4736 -236 0
-4737 -237 0
-4738 -238 0
-4739 -239 0
-4740 -240 0
-4681 -361 0
-4682 -362 0
-4683 -363 0
-4684 -364 0
-4685 -365 0
-4686 -366 0
-4687 -367 0
-4688 -368 0
-4689 -369 0
-4690 -370 0
-4691 -371 0
-4692 -372 0
-4693 -373 0
-4694 -374 0
-4695 -375 0
-4696 -376 0
-4697 -377 0
-4698 -378 0
-4699 -379 0
-4700 -380 0
-4701 -381 0
-4702 -382 0
-4703 -383 0
-4704 -384 0
-4705 -385 0
-4706 -386 0
-4707 -387 0
-4708 -388 0
-4709 -389 0
-4710 -390 0
-4711 -391 0
-4712 -392 0
-4713 -393 0
-4714 -394 0
-4715 -395 0
-4716 -396 0
-4717 -397 0
-4718 -398 0
-4719 -399 0
-4720 -400 0
-4721 -401 0
-4722 -402 0
-4723 -403 0
-4724 -404 0
-4725 -405 0
-4726 -406 0
-4727 -407 0
-4728 -408 0
-4729 -409 0
-4730 -410 0
-4731 -411 0
-4732 -412 0
-4733 -413 0
-4734 -414 0
-4735 -415 0
-4736 -416 0
-4737 -417 0
-4738 -418 0
-4739 -419 0
-4740 -420 0
-4681 -481 0
-4682 -482 0
-4683 -483 0
-4684 -484 0
-4685 -485 0
-4686 -486 0
-4687 -487 0
-4688 -488 0
-4689 -489 0
-4690 -490 0
-4691 -491 0
-4692 -492 0
-4693 -493 0
-4694 -494 0
-4695 -495 0
-4696 -496 0
-4697 -497 0
-4698 -498 0
-4699 -499 0
-4700 -500 0
-4701 -501 0
-4702 -502 0
-4703 -503 0
-4704 -504 0
-4705 -505 0
-4706 -506 0
-4707 -507 0
-4708 -508 0
-4709 -509 0
-4710 -510 0
-4711 -511 0
-4712 -512 0
-4713 -513 0
-4714 -514 0
-4715 -515 0
-4716 -516 0
-4717 -517 0
-4718 -518 0
-4719 -519 0
-4720 -520 0
-4721 -521 0
-4722 -522 0
-4723 -523 0
-4724 -524 0
-4725 -525 0
-4726 -526 0
-4727 -527 0
-4728 -528 0
-4729 -529 0
-4730 -530 0
-4731 -531 0
-4732 -532 0
-4733 -533 0
-4734 -534 0
-4735 -535 0
-4736 -536 0
-4737 -537 0
-4738 -538 0
-4739 -539 0
-4740 -540 0
-4681 -841 0
-4682 -842 0
-4683 -843 0
-4684 -844 0
-4685 -845 0
-4686 -846 0
-4687 -847 0
-4688 -848 0
-4689 -849 0
-4690 -850 0
-4691 -851 0
-4692 -852 0
-4693 -853 0
-4694 -854 0
-4695 -855 0
-4696 -856 0
-4697 -857 0
-4698 -858 0
-4699 -859 0
-4700 -860 0
-4701 -861 0
-4702 -862 0
-4703 -863 0
-4704 -864 0
-4705 -865 0
-4706 -866 0
-4707 -867 0
-4708 -868 0
-4709 -869 0
-4710 -870 0
-4711 -871 0
-4712 -872 0
-4713 -873 0
-4714 -874 0
-4715 -875 0
-4716 -876 0
-4717 -877 0
-4718 -878 0
-4719 -879 0
-4720 -880 0
-4721 -881 0
-4722 -882 0
-4723 -883 0
-4724 -884 0
-4725 -885 0
-4726 -886 0
-4727 -887 0
-4728 -888 0
-4729 -889 0
-4730 -890 0
-4731 -891 0
-4732 -892 0
-4733 -893 0
-4734 -894 0
-4735 -895 0
-4736 -896 0
-4737 -897 0
-4738 -898 0
-4739 -899 0
-4740 -900 0
-4681 -1081 0
-4682 -1082 0
-4683 -1083 0
-4684 -1084 0
-4685 -1085 0
-4686 -1086 0
-4687 -1087 0
-4688 -1088 0
-4689 -1089 0
-4690 -1090 0
-4691 -1091 0
-4692 -1092 0
-4693 -1093 0
-4694 -1094 0
-4695 -1095 0
-4696 -1096 0
-4697 -1097 0
-4698 -1098 0
-4699 -1099 0
-4700 -1100 0
-4701 -1101 0
-4702 -1102 0
-4703 -1103 0
-4704 -1104 0
-4705 -1105 0
-4706 -1106 0
-4707 -1107 0
-4708 -1108 0
-4709 -1109 0
-4710 -1110 0
-4711 -1111 0
-4712 -1112 0
-4713 -1113 0
-4714 -1114 0
-4715 -1115 0
-4716 -1116 0
-4717 -1117 0
-4718 -1118 0
-4719 -1119 0
-4720 -1120 0
-4721 -1121 0
-4722 -1122 0
-4723 -1123 0
-4724 -1124 0
-4725 -1125 0
-4726 -1126 0
-4727 -1127 0
-4728 -1128 0
-4729 -1129 0
-4730 -1130 0
-4731 -1131 0
-4732 -1132 0
-4733 -1133 0
-4734 -1134 0
-4735 -1135 0
-4736 -1136 0
-4737 -1137 0
-4738 -1138 0
-4739 -1139 0
-4740 -1140 0
-4681 -1981 0
-4682 -1982 0
-4683 -1983 0
-4684 -1984 0
-4685 -1985 0
-4686 -1986 0
-4687 -1987 0
-4688 -1988 0
-4689 -1989 0
-4690 -1990 0
-4691 -1991 0
-4692 -1992 0
-4693 -1993 0
-4694 -1994 0
-4695 -1995 0
-4696 -1996 0
-4697 -1997 0
-4698 -1998 0
-4699 -1999 0
-4700 -2000 0
-4701 -2001 0
-4702 -2002 0
-4703 -2003 0
-4704 -2004 0
-4705 -2005 0
-4706 -2006 0
-4707 -2007 0
-4708 -2008 0
-4709 -2009 0
-4710 -2010 0
-4711 -2011 0
-4712 -2012 0
-4713 -2013 0
-4714 -2014 0
-4715 -2015 0
-4716 -2016 0
-4717 -2017 0
-4718 -2018 0
-4719 -2019 0
-4720 -2020 0
-4721 -2021 0
-4722 -2022 0
-4723 -2023 0
-4724 -2024 0
-4725 -2025 0
-4726 -2026 0
-4727 -2027 0
-4728 -2028 0
-4729 -2029 0
-4730 -2030 0
-4731 -2031 0
-4732 -2032 0
-4733 -2033 0
-4734 -2034 0
-4735 -2035 0
-4736 -2036 0
-4737 -2037 0
-4738 -2038 0
-4739 -2039 0
-4740 -2040 0
-4681 -2221 0
-4682 -2222 0
-4683 -2223 0
-4684 -2224 0
-4685 -2225 0
-4686 -2226 0
-4687 -2227 0
-4688 -2228 0
-4689 -2229 0
-4690 -2230 0
-4691 -2231 0
-4692 -2232 0
-4693 -2233 0
-4694 -2234 0
-4695 -2235 0
-4696 -2236 0
-4697 -2237 0
-4698 -2238 0
-4699 -2239 0
-4700 -2240 0
-4701 -2241 0
-4702 -2242 0
-4703 -2243 0
-4704 -2244 0
-4705 -2245 0
-4706 -2246 0
-4707 -2247 0
-4708 -2248 0
-4709 -2249 0
-4710 -2250 0
-4711 -2251 0
-4712 -2252 0
-4713 -2253 0
-4714 -2254 0
-4715 -2255 0
-4716 -2256 0
-4717 -2257 0
-4718 -2258 0
-4719 -2259 0
-4720 -2260 0
-4721 -2261 0
-4722 -2262 0
-4723 -2263 0
-4724 -2264 0
-4725 -2265 0
-4726 -2266 0
-4727 -2267 0
-4728 -2268 0
-4729 -2269 0
-4730 -2270 0
-4731 -2271 0
-4732 -2272 0
-4733 -2273 0
-4734 -2274 0
-4735 -2275 0
-4736 -2276 0
-4737 -2277 0
-4738 -2278 0
-4739 -2279 0
-4740 -2280 0
-4681 -2941 0
-4682 -2942 0
-4683 -2943 0
-4684 -2944 0
-4685 -2945 0
-4686 -2946 0
-4687 -2947 0
-4688 -2948 0
-4689 -2949 0
-4690 -2950 0
-4691 -2951 0
-4692 -2952 0
-4693 -2953 0
-4694 -2954 0
-4695 -2955 0
-4696 -2956 0
-4697 -2957 0
-4698 -2958 0
-4699 -2959 0
-4700 -2960 0
-4701 -2961 0
-4702 -2962 0
-4703 -2963 0
-4704 -2964 0
-4705 -2965 0
-4706 -2966 0
-4707 -2967 0
-4708 -2968 0
-4709 -2969 0
-4710 -2970 0
-4711 -2971 0
-4712 -2972 0
-4713 -2973 0
-4714 -2974 0
-4715 -2975 0
-4716 -2976 0
-4717 -2977 0
-4718 -2978 0
-4719 -2979 0
-4720 -2980 0
-4721 -2981 0
-4722 -2982 0
-4723 -2983 0
-4724 -2984 0
-4725 -2985 0
-4726 -2986 0
-4727 -2987 0
-4728 -2988 0
-4729 -2989 0
-4730 -2990 0
-4731 -2991 0
-4732 -2992 0
-4733 -2993 0
-4734 -2994 0
-4735 -2995 0
-4736 -2996 0
-4737 -2997 0
-4738 -2998 0
-4739 -2999 0
-4740 -3000 0
-4681 -3901 0
-4682 -3902 0
-4683 -3903 0
-4684 -3904 0
-4685 -3905 0
-4686 -3906 0
-4687 -3907 0
-4688 -3908 0
-4689 -3909 0
-4690 -3910 0
-4691 -3911 0
-4692 -3912 0
-4693 -3913 0
-4694 -3914 0
-4695 -3915 0
-4696 -3916 0
-4697 -3917 0
-4698 -3918 0
-4699 -3919 0
-4700 -3920 0
-4701 -3921 0
-4702 -3922 0
-4703 -3923 0
-4704 -3924 0
-4705 -3925 0
-4706 -3926 0
-4707 -3927 0
-4708 -3928 0
-4709 -3929 0
-4710 -3930 0
-4711 -3931 0
-4712 -3932 0
-4713 -3933 0
-4714 -3934 0
-4715 -3935 0
-4716 -3936 0
-4717 -3937 0
-4718 -3938 0
-4719 -3939 0
-4720 -3940 0
-4721 -3941 0
-4722 -3942 0
-4723 -3943 0
-4724 -3944 0
-4725 -3945 0
-4726 -3946 0
-4727 -3947 0
-4728 -3948 0
-4729 -3949 0
-4730 -3950 0
-4731 -3951 0
-4732 -3952 0
-4733 -3953 0
-4734 -3954 0
-4735 -3955 0
-4736 -3956 0
-4737 -3957 0
-4738 -3958 0
-4739 -3959 0
-4740 -3960 0
-4681 -4021 0
-4682 -4022 0
-4683 -4023 0
-4684 -4024 0
-4685 -4025 0
-4686 -4026 0
-4687 -4027 0
-4688 -4028 0
-4689 -4029 0
-4690 -4030 0
-4691 -4031 0
-4692 -4032 0
-4693 -4033 0
-4694 -4034 0
-4695 -4035 0
-4696 -4036 0
-4697 -4037 0
-4698 -4038 0
-4699 -4039 0
-4700 -4040 0
-4701 -4041 0
-4702 -4042 0
-4703 -4043 0
-4704 -4044 0
-4705 -4045 0
-4706 -4046 0
-4707 -4047 0
-4708 -4048 0
-4709 -4049 0
-4710 -4050 0
-4711 -4051 0
-4712 -4052 0
-4713 -4053 0
-4714 -4054 0
-4715 -4055 0
-4716 -4056 0
-4717 -4057 0
-4718 -4058 0
-4719 -4059 0
-4720 -4060 0
-4721 -4061 0
-4722 -4062 0
-4723 -4063 0
-4724 -4064 0
-4725 -4065 0
-4726 -4066 0
-4727 -4067 0
-4728 -4068 0
-4729 -4069 0
-4730 -4070 0
-4731 -4071 0
-4732 -4072 0
-4733 -4073 0
-4734 -4074 0
-4735 -4075 0
-4736 -4076 0
-4737 -4077 0
-4738 -4078 0
-4739 -4079 0
-4740 -4080 0
-4681 -4261 0
-4682 -4262 0
-4683 -4263 0
-4684 -4264 0
-4685 -4265 0
-4686 -4266 0
-4687 -4267 0
-4688 -4268 0
-4689 -4269 0
-4690 -4270 0
-4691 -4271 0
-4692 -4272 0
-4693 -4273 0
-4694 -4274 0
-4695 -4275 0
-4696 -4276 0
-4697 -4277 0
-4698 -4278 0
-4699 -4279 0
-4700 -4280 0
-4701 -4281 0
-4702 -4282 0
-4703 -4283 0
-4704 -4284 0
-4705 -4285 0
-4706 -4286 0
-4707 -4287 0
-4708 -4288 0
-4709 -4289 0
-4710 -4290 0
-4711 -4291 0
-4712 -4292 0
-4713 -4293 0
-4714 -4294 0
-4715 -4295 0
-4716 -4296 0
-4717 -4297 0
-4718 -4298 0
-4719 -4299 0
-4720 -4300 0
-4721 -4301 0
-4722 -4302 0
-4723 -4303 0
-4724 -4304 0
-4725 -4305 0
-4726 -4306 0
-4727 -4307 0
-4728 -4308 0
-4729 -4309 0
-4730 -4310 0
-4731 -4311 0
-4732 -4312 0
-4733 -4313 0
-4734 -4314 0
-4735 -4315 0
-4736 -4316 0
-4737 -4317 0
-4738 -4318 0
-4739 -4319 0
-4740 -4320 0
-4741 -781 0
-4742 -782 0
-4743 -783 0
-4744 -784 0
-4745 -785 0
-4746 -786 0
-4747 -787 0
-4748 -788 0
-4749 -789 0
-4750 -790 0
-4751 -791 0
-4752 -792 0
-4753 -793 0
-4754 -794 0
-4755 -795 0
-4756 -796 0
-4757 -797 0
-4758 -798 0
-4759 -799 0
-4760 -800 0
-4761 -801 0
-4762 -802 0
-4763 -803 0
-4764 -804 0
-4765 -805 0
-4766 -806 0
-4767 -807 0
-4768 -808 0
-4769 -809 0
-4770 -810 0
-4771 -811 0
-4772 -812 0
-4773 -813 0
-4774 -814 0
-4775 -815 0
-4776 -816 0
-4777 -817 0
-4778 -818 0
-4779 -819 0
-4780 -820 0
-4781 -821 0
-4782 -822 0
-4783 -823 0
-4784 -824 0
-4785 -825 0
-4786 -826 0
-4787 -827 0
-4788 -828 0
-4789 -829 0
-4790 -830 0
-4791 -831 0
-4792 -832 0
-4793 -833 0
-4794 -834 0
-4795 -835 0
-4796 -836 0
-4797 -837 0
-4798 -838 0
-4799 -839 0
-4800 -840 0
